*SPEF "ieee 1481-1999"
*DESIGN "u0_sram22_top"
*DATE "05:26:41 Tuesday September 01, 2026"
*VENDOR "The OpenROAD Project"
*PROGRAM "OpenROAD"
*VERSION "26Q3-1080-gab6fd26351"
*DESIGN_FLOW "NAME_SCOPE LOCAL" "PIN_CAP NONE"
*DIVIDER /
*DELIMITER :
*BUS_DELIMITER []
*T_UNIT 1 NS
*C_UNIT 1 PF
*R_UNIT 1 OHM
*L_UNIT 1 HENRY

*NAME_MAP
*151 addr[0]
*152 addr[1]
*153 addr[2]
*154 addr[3]
*155 addr[4]
*156 addr[5]
*157 addr[6]
*158 addr[7]
*159 ce
*10 clk
*160 data_in[0]
*161 data_in[10]
*162 data_in[11]
*163 data_in[12]
*164 data_in[13]
*165 data_in[14]
*166 data_in[15]
*167 data_in[16]
*168 data_in[17]
*169 data_in[18]
*170 data_in[19]
*171 data_in[1]
*172 data_in[20]
*173 data_in[21]
*174 data_in[22]
*175 data_in[23]
*176 data_in[24]
*177 data_in[25]
*178 data_in[26]
*179 data_in[27]
*180 data_in[28]
*181 data_in[29]
*182 data_in[2]
*183 data_in[30]
*184 data_in[31]
*185 data_in[32]
*186 data_in[33]
*187 data_in[34]
*188 data_in[35]
*189 data_in[36]
*190 data_in[37]
*191 data_in[38]
*192 data_in[39]
*193 data_in[3]
*194 data_in[40]
*195 data_in[41]
*196 data_in[42]
*197 data_in[43]
*198 data_in[44]
*199 data_in[45]
*200 data_in[46]
*201 data_in[47]
*202 data_in[48]
*203 data_in[49]
*204 data_in[4]
*205 data_in[50]
*206 data_in[51]
*207 data_in[52]
*208 data_in[53]
*209 data_in[54]
*210 data_in[55]
*211 data_in[56]
*212 data_in[57]
*213 data_in[58]
*214 data_in[59]
*215 data_in[5]
*216 data_in[60]
*217 data_in[61]
*218 data_in[62]
*219 data_in[63]
*220 data_in[6]
*221 data_in[7]
*222 data_in[8]
*223 data_in[9]
*234 data_out[0]
*235 data_out[10]
*236 data_out[11]
*237 data_out[12]
*238 data_out[13]
*239 data_out[14]
*240 data_out[15]
*241 data_out[16]
*242 data_out[17]
*243 data_out[18]
*244 data_out[19]
*245 data_out[1]
*246 data_out[20]
*247 data_out[21]
*248 data_out[22]
*249 data_out[23]
*250 data_out[24]
*251 data_out[25]
*252 data_out[26]
*253 data_out[27]
*254 data_out[28]
*255 data_out[29]
*256 data_out[2]
*257 data_out[30]
*258 data_out[31]
*259 data_out[32]
*260 data_out[33]
*261 data_out[34]
*262 data_out[35]
*263 data_out[36]
*264 data_out[37]
*265 data_out[38]
*266 data_out[39]
*267 data_out[3]
*268 data_out[40]
*269 data_out[41]
*270 data_out[42]
*271 data_out[43]
*272 data_out[44]
*273 data_out[45]
*274 data_out[46]
*275 data_out[47]
*276 data_out[48]
*277 data_out[49]
*278 data_out[4]
*279 data_out[50]
*280 data_out[51]
*281 data_out[52]
*282 data_out[53]
*283 data_out[54]
*284 data_out[55]
*285 data_out[56]
*286 data_out[57]
*287 data_out[58]
*288 data_out[59]
*289 data_out[5]
*290 data_out[60]
*291 data_out[61]
*292 data_out[62]
*293 data_out[63]
*294 data_out[6]
*295 data_out[7]
*296 data_out[8]
*297 data_out[9]
*1 net1
*11 net10
*91 net100
*92 net101
*93 net102
*94 net103
*95 net104
*96 net105
*97 net106
*98 net107
*99 net108
*100 net109
*12 net11
*101 net110
*102 net111
*103 net112
*104 net113
*105 net114
*106 net115
*107 net116
*108 net117
*109 net118
*110 net119
*13 net12
*111 net120
*112 net121
*113 net122
*114 net123
*115 net124
*116 net125
*117 net126
*118 net127
*119 net128
*120 net129
*14 net13
*121 net130
*122 net131
*123 net132
*124 net133
*125 net134
*126 net135
*127 net136
*128 net137
*129 net138
*130 net139
*15 net14
*131 net140
*132 net141
*133 net142
*134 net143
*135 net144
*136 net145
*137 net146
*138 net147
*298 net148
*299 net149
*16 net15
*300 net150
*301 net151
*302 net152
*303 net153
*304 net154
*305 net155
*306 net156
*17 net16
*18 net17
*19 net18
*20 net19
*2 net2
*21 net20
*22 net21
*23 net22
*24 net23
*25 net24
*26 net25
*27 net26
*28 net27
*29 net28
*30 net29
*3 net3
*31 net30
*32 net31
*33 net32
*34 net33
*35 net34
*36 net35
*37 net36
*38 net37
*39 net38
*40 net39
*4 net4
*41 net40
*42 net41
*43 net42
*44 net43
*45 net44
*46 net45
*47 net46
*48 net47
*49 net48
*50 net49
*5 net5
*51 net50
*52 net51
*53 net52
*54 net53
*55 net54
*56 net55
*57 net56
*58 net57
*59 net58
*60 net59
*6 net6
*61 net60
*62 net61
*63 net62
*64 net63
*65 net64
*66 net65
*67 net66
*68 net67
*69 net68
*70 net69
*7 net7
*71 net70
*72 net71
*73 net72
*74 net73
*139 net74
*140 net75
*141 net76
*142 net77
*143 net78
*144 net79
*8 net8
*145 net80
*146 net81
*147 net82
*148 net83
*75 net84
*76 net85
*77 net86
*78 net87
*79 net88
*80 net89
*9 net9
*81 net90
*82 net91
*83 net92
*84 net93
*85 net94
*86 net95
*87 net96
*88 net97
*89 net98
*90 net99
*224 rstb
*225 we
*226 wmask[0]
*227 wmask[1]
*228 wmask[2]
*229 wmask[3]
*230 wmask[4]
*231 wmask[5]
*232 wmask[6]
*233 wmask[7]
*3629 FILLER_0_0
*3796 FILLER_0_1007
*3797 FILLER_0_1015
*3798 FILLER_0_1019
*3799 FILLER_0_1021
*3800 FILLER_0_1029
*3801 FILLER_0_1037
*3802 FILLER_0_1045
*3803 FILLER_0_1049
*3804 FILLER_0_1051
*3805 FILLER_0_1059
*3806 FILLER_0_1067
*3646 FILLER_0_107
*3807 FILLER_0_1075
*3808 FILLER_0_1079
*3809 FILLER_0_1081
*3810 FILLER_0_1089
*3811 FILLER_0_1097
*3812 FILLER_0_1105
*3813 FILLER_0_1109
*3814 FILLER_0_1111
*3815 FILLER_0_1119
*3816 FILLER_0_1127
*3817 FILLER_0_1135
*3818 FILLER_0_1139
*3819 FILLER_0_1141
*3820 FILLER_0_1149
*3647 FILLER_0_115
*3821 FILLER_0_1157
*3822 FILLER_0_1165
*3823 FILLER_0_1169
*3824 FILLER_0_1171
*3825 FILLER_0_1179
*3826 FILLER_0_1187
*3648 FILLER_0_119
*3827 FILLER_0_1195
*3828 FILLER_0_1199
*3829 FILLER_0_1201
*3830 FILLER_0_1209
*3649 FILLER_0_121
*3831 FILLER_0_1217
*3832 FILLER_0_1225
*3833 FILLER_0_1229
*3834 FILLER_0_1231
*3835 FILLER_0_1239
*3836 FILLER_0_1247
*3837 FILLER_0_1255
*3838 FILLER_0_1259
*3839 FILLER_0_1261
*3840 FILLER_0_1269
*3841 FILLER_0_1277
*3842 FILLER_0_1285
*3843 FILLER_0_1289
*3650 FILLER_0_129
*3844 FILLER_0_1291
*3845 FILLER_0_1299
*3846 FILLER_0_1307
*3847 FILLER_0_1315
*3848 FILLER_0_1319
*3849 FILLER_0_1321
*3850 FILLER_0_1329
*3851 FILLER_0_1337
*3852 FILLER_0_1345
*3853 FILLER_0_1349
*3854 FILLER_0_1351
*3855 FILLER_0_1359
*3856 FILLER_0_1367
*3651 FILLER_0_137
*3857 FILLER_0_1375
*3858 FILLER_0_1379
*3859 FILLER_0_1381
*3860 FILLER_0_1389
*3861 FILLER_0_1397
*3862 FILLER_0_1405
*3863 FILLER_0_1409
*3864 FILLER_0_1411
*3865 FILLER_0_1419
*3866 FILLER_0_1427
*3867 FILLER_0_1435
*3868 FILLER_0_1439
*3869 FILLER_0_1441
*3870 FILLER_0_1449
*3652 FILLER_0_145
*3871 FILLER_0_1457
*3872 FILLER_0_1465
*3873 FILLER_0_1469
*3874 FILLER_0_1471
*3875 FILLER_0_1479
*3876 FILLER_0_1487
*3653 FILLER_0_149
*3877 FILLER_0_1495
*3878 FILLER_0_1499
*3879 FILLER_0_1501
*3880 FILLER_0_1509
*3654 FILLER_0_151
*3881 FILLER_0_1517
*3882 FILLER_0_1525
*3883 FILLER_0_1529
*3884 FILLER_0_1531
*3885 FILLER_0_1539
*3886 FILLER_0_1547
*3887 FILLER_0_1555
*3888 FILLER_0_1559
*3889 FILLER_0_1561
*3890 FILLER_0_1569
*3891 FILLER_0_1577
*3892 FILLER_0_1585
*3893 FILLER_0_1589
*3655 FILLER_0_159
*3894 FILLER_0_1591
*3895 FILLER_0_1599
*3631 FILLER_0_16
*3896 FILLER_0_1607
*3897 FILLER_0_1615
*3898 FILLER_0_1619
*3899 FILLER_0_1621
*3900 FILLER_0_1629
*3901 FILLER_0_1637
*3902 FILLER_0_1645
*3903 FILLER_0_1649
*3904 FILLER_0_1651
*3905 FILLER_0_1659
*3906 FILLER_0_1667
*3656 FILLER_0_167
*3907 FILLER_0_1675
*3908 FILLER_0_1679
*3909 FILLER_0_1681
*3910 FILLER_0_1689
*3911 FILLER_0_1697
*3912 FILLER_0_1705
*3913 FILLER_0_1709
*3914 FILLER_0_1711
*3915 FILLER_0_1719
*3916 FILLER_0_1727
*3917 FILLER_0_1735
*3918 FILLER_0_1739
*3919 FILLER_0_1741
*3920 FILLER_0_1749
*3657 FILLER_0_175
*3921 FILLER_0_1757
*3922 FILLER_0_1765
*3923 FILLER_0_1769
*3924 FILLER_0_1771
*3925 FILLER_0_1779
*3926 FILLER_0_1787
*3658 FILLER_0_179
*3927 FILLER_0_1795
*3928 FILLER_0_1799
*3929 FILLER_0_1801
*3930 FILLER_0_1809
*3659 FILLER_0_181
*3931 FILLER_0_1817
*3932 FILLER_0_1825
*3933 FILLER_0_1829
*3934 FILLER_0_1831
*3935 FILLER_0_1839
*3936 FILLER_0_1847
*3937 FILLER_0_1855
*3938 FILLER_0_1859
*3939 FILLER_0_1861
*3940 FILLER_0_1869
*3941 FILLER_0_1877
*3942 FILLER_0_1885
*3943 FILLER_0_1889
*3660 FILLER_0_189
*3944 FILLER_0_1891
*3945 FILLER_0_1899
*3946 FILLER_0_1907
*3947 FILLER_0_1915
*3948 FILLER_0_1919
*3949 FILLER_0_1921
*3950 FILLER_0_1929
*3951 FILLER_0_1937
*3952 FILLER_0_1945
*3953 FILLER_0_1949
*3954 FILLER_0_1951
*3955 FILLER_0_1959
*3956 FILLER_0_1967
*3661 FILLER_0_197
*3957 FILLER_0_1975
*3958 FILLER_0_1979
*3959 FILLER_0_1981
*3960 FILLER_0_1989
*3961 FILLER_0_1997
*3962 FILLER_0_2005
*3963 FILLER_0_2009
*3964 FILLER_0_2011
*3965 FILLER_0_2019
*3966 FILLER_0_2027
*3967 FILLER_0_2035
*3968 FILLER_0_2039
*3969 FILLER_0_2041
*3970 FILLER_0_2049
*3662 FILLER_0_205
*3971 FILLER_0_2057
*3972 FILLER_0_2065
*3973 FILLER_0_2069
*3974 FILLER_0_2071
*3975 FILLER_0_2079
*3976 FILLER_0_2087
*3663 FILLER_0_209
*3977 FILLER_0_2095
*3978 FILLER_0_2099
*3979 FILLER_0_2101
*3980 FILLER_0_2109
*3664 FILLER_0_211
*3981 FILLER_0_2117
*3982 FILLER_0_2125
*3983 FILLER_0_2129
*3665 FILLER_0_219
*3666 FILLER_0_227
*3667 FILLER_0_235
*3668 FILLER_0_239
*3632 FILLER_0_24
*3669 FILLER_0_241
*3670 FILLER_0_249
*3671 FILLER_0_257
*3672 FILLER_0_265
*3673 FILLER_0_269
*3674 FILLER_0_271
*3675 FILLER_0_279
*3633 FILLER_0_28
*3676 FILLER_0_287
*3677 FILLER_0_295
*3678 FILLER_0_299
*3679 FILLER_0_301
*3680 FILLER_0_309
*3634 FILLER_0_31
*3681 FILLER_0_317
*3682 FILLER_0_325
*3683 FILLER_0_329
*3684 FILLER_0_331
*3685 FILLER_0_339
*3686 FILLER_0_347
*3687 FILLER_0_355
*3688 FILLER_0_359
*3689 FILLER_0_361
*3690 FILLER_0_369
*3691 FILLER_0_377
*3692 FILLER_0_385
*3693 FILLER_0_389
*3635 FILLER_0_39
*3694 FILLER_0_391
*3695 FILLER_0_399
*3696 FILLER_0_407
*3697 FILLER_0_415
*3698 FILLER_0_419
*3699 FILLER_0_421
*3700 FILLER_0_429
*3701 FILLER_0_437
*3702 FILLER_0_445
*3703 FILLER_0_449
*3704 FILLER_0_451
*3705 FILLER_0_459
*3706 FILLER_0_467
*3636 FILLER_0_47
*3707 FILLER_0_475
*3708 FILLER_0_479
*3709 FILLER_0_481
*3710 FILLER_0_489
*3711 FILLER_0_497
*3712 FILLER_0_505
*3713 FILLER_0_509
*3714 FILLER_0_511
*3715 FILLER_0_519
*3716 FILLER_0_527
*3717 FILLER_0_535
*3718 FILLER_0_539
*3719 FILLER_0_541
*3720 FILLER_0_549
*3637 FILLER_0_55
*3721 FILLER_0_557
*3722 FILLER_0_565
*3723 FILLER_0_569
*3724 FILLER_0_571
*3725 FILLER_0_579
*3726 FILLER_0_587
*3638 FILLER_0_59
*3727 FILLER_0_595
*3728 FILLER_0_599
*3729 FILLER_0_601
*3730 FILLER_0_609
*3639 FILLER_0_61
*3731 FILLER_0_617
*3732 FILLER_0_625
*3733 FILLER_0_629
*3734 FILLER_0_631
*3735 FILLER_0_639
*3736 FILLER_0_647
*3737 FILLER_0_655
*3738 FILLER_0_659
*3739 FILLER_0_661
*3740 FILLER_0_669
*3741 FILLER_0_677
*3742 FILLER_0_685
*3743 FILLER_0_689
*3640 FILLER_0_69
*3744 FILLER_0_691
*3745 FILLER_0_699
*3746 FILLER_0_707
*3747 FILLER_0_715
*3748 FILLER_0_719
*3749 FILLER_0_721
*3750 FILLER_0_729
*3751 FILLER_0_737
*3752 FILLER_0_745
*3753 FILLER_0_749
*3754 FILLER_0_751
*3755 FILLER_0_759
*3756 FILLER_0_767
*3641 FILLER_0_77
*3757 FILLER_0_775
*3758 FILLER_0_779
*3759 FILLER_0_781
*3760 FILLER_0_789
*3761 FILLER_0_797
*3630 FILLER_0_8
*3762 FILLER_0_805
*3763 FILLER_0_809
*3764 FILLER_0_811
*3765 FILLER_0_819
*3766 FILLER_0_827
*3767 FILLER_0_835
*3768 FILLER_0_839
*3769 FILLER_0_841
*3770 FILLER_0_849
*3642 FILLER_0_85
*3771 FILLER_0_857
*3772 FILLER_0_865
*3773 FILLER_0_869
*3774 FILLER_0_871
*3775 FILLER_0_879
*3776 FILLER_0_887
*3643 FILLER_0_89
*3777 FILLER_0_895
*3778 FILLER_0_899
*3779 FILLER_0_901
*3780 FILLER_0_909
*3644 FILLER_0_91
*3781 FILLER_0_917
*3782 FILLER_0_925
*3783 FILLER_0_929
*3784 FILLER_0_931
*3785 FILLER_0_939
*3786 FILLER_0_947
*3787 FILLER_0_955
*3788 FILLER_0_959
*3789 FILLER_0_961
*3790 FILLER_0_969
*3791 FILLER_0_977
*3792 FILLER_0_985
*3793 FILLER_0_989
*3645 FILLER_0_99
*3794 FILLER_0_991
*3795 FILLER_0_999
*14359 FILLER_100_0
*14365 FILLER_100_1549
*14366 FILLER_100_1557
*14367 FILLER_100_1565
*14368 FILLER_100_1573
*14369 FILLER_100_1577
*14370 FILLER_100_1580
*14371 FILLER_100_1588
*14372 FILLER_100_1596
*14361 FILLER_100_16
*14373 FILLER_100_1604
*14374 FILLER_100_1612
*14375 FILLER_100_1620
*14376 FILLER_100_1628
*14377 FILLER_100_1636
*14378 FILLER_100_1638
*14379 FILLER_100_1640
*14380 FILLER_100_1648
*14381 FILLER_100_1656
*14382 FILLER_100_1664
*14383 FILLER_100_1672
*14384 FILLER_100_1680
*14385 FILLER_100_1688
*14386 FILLER_100_1696
*14387 FILLER_100_1698
*14388 FILLER_100_1700
*14389 FILLER_100_1708
*14390 FILLER_100_1716
*14391 FILLER_100_1724
*14392 FILLER_100_1732
*14393 FILLER_100_1740
*14394 FILLER_100_1748
*14395 FILLER_100_1756
*14396 FILLER_100_1758
*14397 FILLER_100_1760
*14398 FILLER_100_1768
*14399 FILLER_100_1776
*14400 FILLER_100_1784
*14401 FILLER_100_1792
*14402 FILLER_100_1800
*14403 FILLER_100_1808
*14404 FILLER_100_1816
*14405 FILLER_100_1818
*14406 FILLER_100_1820
*14407 FILLER_100_1828
*14408 FILLER_100_1836
*14409 FILLER_100_1844
*14410 FILLER_100_1852
*14411 FILLER_100_1860
*14412 FILLER_100_1868
*14413 FILLER_100_1876
*14414 FILLER_100_1878
*14415 FILLER_100_1880
*14416 FILLER_100_1888
*14417 FILLER_100_1896
*14418 FILLER_100_1904
*14419 FILLER_100_1912
*14420 FILLER_100_1920
*14421 FILLER_100_1928
*14422 FILLER_100_1936
*14423 FILLER_100_1938
*14424 FILLER_100_1940
*14425 FILLER_100_1948
*14426 FILLER_100_1956
*14427 FILLER_100_1964
*14428 FILLER_100_1972
*14429 FILLER_100_1980
*14430 FILLER_100_1988
*14431 FILLER_100_1996
*14432 FILLER_100_1998
*14433 FILLER_100_2000
*14434 FILLER_100_2008
*14435 FILLER_100_2016
*14436 FILLER_100_2024
*14437 FILLER_100_2032
*14438 FILLER_100_2040
*14439 FILLER_100_2048
*14440 FILLER_100_2056
*14441 FILLER_100_2058
*14442 FILLER_100_2060
*14443 FILLER_100_2068
*14444 FILLER_100_2076
*14445 FILLER_100_2084
*14446 FILLER_100_2092
*14447 FILLER_100_2100
*14448 FILLER_100_2108
*14449 FILLER_100_2116
*14450 FILLER_100_2118
*14451 FILLER_100_2120
*14452 FILLER_100_2128
*14362 FILLER_100_24
*14363 FILLER_100_28
*14364 FILLER_100_31
*14360 FILLER_100_8
*14453 FILLER_101_0
*14460 FILLER_101_1549
*14461 FILLER_101_1557
*14462 FILLER_101_1565
*14463 FILLER_101_1573
*14464 FILLER_101_1581
*14465 FILLER_101_1589
*14466 FILLER_101_1597
*14455 FILLER_101_16
*14467 FILLER_101_1605
*14468 FILLER_101_1610
*14469 FILLER_101_1618
*14470 FILLER_101_1626
*14471 FILLER_101_1634
*14472 FILLER_101_1642
*14473 FILLER_101_1650
*14474 FILLER_101_1658
*14475 FILLER_101_1666
*14476 FILLER_101_1668
*14477 FILLER_101_1670
*14478 FILLER_101_1678
*14479 FILLER_101_1686
*14480 FILLER_101_1694
*14481 FILLER_101_1702
*14482 FILLER_101_1710
*14483 FILLER_101_1718
*14484 FILLER_101_1726
*14485 FILLER_101_1728
*14486 FILLER_101_1730
*14487 FILLER_101_1738
*14488 FILLER_101_1746
*14489 FILLER_101_1754
*14490 FILLER_101_1762
*14491 FILLER_101_1770
*14492 FILLER_101_1778
*14493 FILLER_101_1786
*14494 FILLER_101_1788
*14495 FILLER_101_1790
*14496 FILLER_101_1798
*14497 FILLER_101_1806
*14498 FILLER_101_1814
*14499 FILLER_101_1822
*14500 FILLER_101_1830
*14501 FILLER_101_1838
*14502 FILLER_101_1846
*14503 FILLER_101_1848
*14504 FILLER_101_1850
*14505 FILLER_101_1858
*14506 FILLER_101_1866
*14507 FILLER_101_1874
*14508 FILLER_101_1882
*14509 FILLER_101_1890
*14510 FILLER_101_1898
*14511 FILLER_101_1906
*14512 FILLER_101_1908
*14513 FILLER_101_1910
*14514 FILLER_101_1918
*14515 FILLER_101_1926
*14516 FILLER_101_1934
*14517 FILLER_101_1942
*14518 FILLER_101_1950
*14519 FILLER_101_1958
*14520 FILLER_101_1966
*14521 FILLER_101_1968
*14522 FILLER_101_1970
*14523 FILLER_101_1978
*14524 FILLER_101_1986
*14525 FILLER_101_1994
*14526 FILLER_101_2002
*14527 FILLER_101_2010
*14528 FILLER_101_2018
*14529 FILLER_101_2026
*14530 FILLER_101_2028
*14531 FILLER_101_2030
*14532 FILLER_101_2038
*14533 FILLER_101_2046
*14534 FILLER_101_2054
*14535 FILLER_101_2062
*14536 FILLER_101_2070
*14537 FILLER_101_2078
*14538 FILLER_101_2086
*14539 FILLER_101_2088
*14540 FILLER_101_2090
*14541 FILLER_101_2098
*14542 FILLER_101_2106
*14543 FILLER_101_2114
*14544 FILLER_101_2122
*14456 FILLER_101_24
*14457 FILLER_101_32
*14458 FILLER_101_36
*14459 FILLER_101_38
*14454 FILLER_101_8
*14545 FILLER_102_0
*14551 FILLER_102_1549
*14552 FILLER_102_1557
*14553 FILLER_102_1565
*14554 FILLER_102_1573
*14555 FILLER_102_1577
*14556 FILLER_102_1580
*14557 FILLER_102_1588
*14558 FILLER_102_1596
*14547 FILLER_102_16
*14559 FILLER_102_1604
*14560 FILLER_102_1612
*14561 FILLER_102_1620
*14562 FILLER_102_1628
*14563 FILLER_102_1636
*14564 FILLER_102_1638
*14565 FILLER_102_1640
*14566 FILLER_102_1648
*14567 FILLER_102_1656
*14568 FILLER_102_1664
*14569 FILLER_102_1672
*14570 FILLER_102_1680
*14571 FILLER_102_1688
*14572 FILLER_102_1696
*14573 FILLER_102_1698
*14574 FILLER_102_1700
*14575 FILLER_102_1708
*14576 FILLER_102_1716
*14577 FILLER_102_1724
*14578 FILLER_102_1732
*14579 FILLER_102_1740
*14580 FILLER_102_1748
*14581 FILLER_102_1756
*14582 FILLER_102_1758
*14583 FILLER_102_1760
*14584 FILLER_102_1768
*14585 FILLER_102_1776
*14586 FILLER_102_1784
*14587 FILLER_102_1792
*14588 FILLER_102_1800
*14589 FILLER_102_1808
*14590 FILLER_102_1816
*14591 FILLER_102_1818
*14592 FILLER_102_1820
*14593 FILLER_102_1828
*14594 FILLER_102_1836
*14595 FILLER_102_1844
*14596 FILLER_102_1852
*14597 FILLER_102_1860
*14598 FILLER_102_1868
*14599 FILLER_102_1876
*14600 FILLER_102_1878
*14601 FILLER_102_1880
*14602 FILLER_102_1888
*14603 FILLER_102_1896
*14604 FILLER_102_1904
*14605 FILLER_102_1912
*14606 FILLER_102_1920
*14607 FILLER_102_1928
*14608 FILLER_102_1936
*14609 FILLER_102_1938
*14610 FILLER_102_1940
*14611 FILLER_102_1948
*14612 FILLER_102_1956
*14613 FILLER_102_1964
*14614 FILLER_102_1972
*14615 FILLER_102_1980
*14616 FILLER_102_1988
*14617 FILLER_102_1996
*14618 FILLER_102_1998
*14619 FILLER_102_2000
*14620 FILLER_102_2008
*14621 FILLER_102_2016
*14622 FILLER_102_2024
*14623 FILLER_102_2032
*14624 FILLER_102_2040
*14625 FILLER_102_2048
*14626 FILLER_102_2056
*14627 FILLER_102_2058
*14628 FILLER_102_2060
*14629 FILLER_102_2068
*14630 FILLER_102_2076
*14631 FILLER_102_2084
*14632 FILLER_102_2092
*14633 FILLER_102_2100
*14634 FILLER_102_2108
*14635 FILLER_102_2116
*14636 FILLER_102_2118
*14637 FILLER_102_2120
*14638 FILLER_102_2128
*14548 FILLER_102_24
*14549 FILLER_102_28
*14550 FILLER_102_31
*14546 FILLER_102_8
*14639 FILLER_103_0
*14646 FILLER_103_1549
*14647 FILLER_103_1557
*14648 FILLER_103_1565
*14649 FILLER_103_1573
*14650 FILLER_103_1581
*14651 FILLER_103_1589
*14652 FILLER_103_1597
*14641 FILLER_103_16
*14653 FILLER_103_1605
*14654 FILLER_103_1610
*14655 FILLER_103_1618
*14656 FILLER_103_1626
*14657 FILLER_103_1634
*14658 FILLER_103_1642
*14659 FILLER_103_1650
*14660 FILLER_103_1658
*14661 FILLER_103_1666
*14662 FILLER_103_1668
*14663 FILLER_103_1670
*14664 FILLER_103_1678
*14665 FILLER_103_1686
*14666 FILLER_103_1694
*14667 FILLER_103_1702
*14668 FILLER_103_1710
*14669 FILLER_103_1718
*14670 FILLER_103_1726
*14671 FILLER_103_1728
*14672 FILLER_103_1730
*14673 FILLER_103_1738
*14674 FILLER_103_1746
*14675 FILLER_103_1754
*14676 FILLER_103_1762
*14677 FILLER_103_1770
*14678 FILLER_103_1778
*14679 FILLER_103_1786
*14680 FILLER_103_1788
*14681 FILLER_103_1790
*14682 FILLER_103_1798
*14683 FILLER_103_1806
*14684 FILLER_103_1814
*14685 FILLER_103_1822
*14686 FILLER_103_1830
*14687 FILLER_103_1838
*14688 FILLER_103_1846
*14689 FILLER_103_1848
*14690 FILLER_103_1850
*14691 FILLER_103_1858
*14692 FILLER_103_1866
*14693 FILLER_103_1874
*14694 FILLER_103_1882
*14695 FILLER_103_1890
*14696 FILLER_103_1898
*14697 FILLER_103_1906
*14698 FILLER_103_1908
*14699 FILLER_103_1910
*14700 FILLER_103_1918
*14701 FILLER_103_1926
*14702 FILLER_103_1934
*14703 FILLER_103_1942
*14704 FILLER_103_1950
*14705 FILLER_103_1958
*14706 FILLER_103_1966
*14707 FILLER_103_1968
*14708 FILLER_103_1970
*14709 FILLER_103_1978
*14710 FILLER_103_1986
*14711 FILLER_103_1994
*14712 FILLER_103_2002
*14713 FILLER_103_2010
*14714 FILLER_103_2018
*14715 FILLER_103_2026
*14716 FILLER_103_2028
*14717 FILLER_103_2030
*14718 FILLER_103_2038
*14719 FILLER_103_2046
*14720 FILLER_103_2054
*14721 FILLER_103_2062
*14722 FILLER_103_2070
*14723 FILLER_103_2078
*14724 FILLER_103_2086
*14725 FILLER_103_2088
*14726 FILLER_103_2090
*14727 FILLER_103_2098
*14728 FILLER_103_2106
*14729 FILLER_103_2114
*14730 FILLER_103_2122
*14642 FILLER_103_24
*14643 FILLER_103_32
*14644 FILLER_103_36
*14645 FILLER_103_38
*14640 FILLER_103_8
*14731 FILLER_104_0
*14737 FILLER_104_1549
*14738 FILLER_104_1557
*14739 FILLER_104_1565
*14740 FILLER_104_1573
*14741 FILLER_104_1577
*14742 FILLER_104_1580
*14743 FILLER_104_1588
*14744 FILLER_104_1596
*14733 FILLER_104_16
*14745 FILLER_104_1604
*14746 FILLER_104_1612
*14747 FILLER_104_1620
*14748 FILLER_104_1628
*14749 FILLER_104_1636
*14750 FILLER_104_1638
*14751 FILLER_104_1640
*14752 FILLER_104_1648
*14753 FILLER_104_1656
*14754 FILLER_104_1664
*14755 FILLER_104_1672
*14756 FILLER_104_1680
*14757 FILLER_104_1688
*14758 FILLER_104_1696
*14759 FILLER_104_1698
*14760 FILLER_104_1700
*14761 FILLER_104_1708
*14762 FILLER_104_1716
*14763 FILLER_104_1724
*14764 FILLER_104_1732
*14765 FILLER_104_1740
*14766 FILLER_104_1748
*14767 FILLER_104_1756
*14768 FILLER_104_1758
*14769 FILLER_104_1760
*14770 FILLER_104_1768
*14771 FILLER_104_1776
*14772 FILLER_104_1784
*14773 FILLER_104_1792
*14774 FILLER_104_1800
*14775 FILLER_104_1808
*14776 FILLER_104_1816
*14777 FILLER_104_1818
*14778 FILLER_104_1820
*14779 FILLER_104_1828
*14780 FILLER_104_1836
*14781 FILLER_104_1844
*14782 FILLER_104_1852
*14783 FILLER_104_1860
*14784 FILLER_104_1868
*14785 FILLER_104_1876
*14786 FILLER_104_1878
*14787 FILLER_104_1880
*14788 FILLER_104_1888
*14789 FILLER_104_1896
*14790 FILLER_104_1904
*14791 FILLER_104_1912
*14792 FILLER_104_1920
*14793 FILLER_104_1928
*14794 FILLER_104_1936
*14795 FILLER_104_1938
*14796 FILLER_104_1940
*14797 FILLER_104_1948
*14798 FILLER_104_1956
*14799 FILLER_104_1964
*14800 FILLER_104_1972
*14801 FILLER_104_1980
*14802 FILLER_104_1988
*14803 FILLER_104_1996
*14804 FILLER_104_1998
*14805 FILLER_104_2000
*14806 FILLER_104_2008
*14807 FILLER_104_2016
*14808 FILLER_104_2024
*14809 FILLER_104_2032
*14810 FILLER_104_2040
*14811 FILLER_104_2048
*14812 FILLER_104_2056
*14813 FILLER_104_2058
*14814 FILLER_104_2060
*14815 FILLER_104_2068
*14816 FILLER_104_2076
*14817 FILLER_104_2084
*14818 FILLER_104_2092
*14819 FILLER_104_2100
*14820 FILLER_104_2108
*14821 FILLER_104_2116
*14822 FILLER_104_2118
*14823 FILLER_104_2120
*14824 FILLER_104_2128
*14734 FILLER_104_24
*14735 FILLER_104_28
*14736 FILLER_104_31
*14732 FILLER_104_8
*14825 FILLER_105_0
*14832 FILLER_105_1549
*14833 FILLER_105_1557
*14834 FILLER_105_1565
*14835 FILLER_105_1573
*14836 FILLER_105_1581
*14837 FILLER_105_1589
*14838 FILLER_105_1597
*14827 FILLER_105_16
*14839 FILLER_105_1605
*14840 FILLER_105_1610
*14841 FILLER_105_1618
*14842 FILLER_105_1626
*14843 FILLER_105_1634
*14844 FILLER_105_1642
*14845 FILLER_105_1650
*14846 FILLER_105_1658
*14847 FILLER_105_1666
*14848 FILLER_105_1668
*14849 FILLER_105_1670
*14850 FILLER_105_1678
*14851 FILLER_105_1686
*14852 FILLER_105_1694
*14853 FILLER_105_1702
*14854 FILLER_105_1710
*14855 FILLER_105_1718
*14856 FILLER_105_1726
*14857 FILLER_105_1728
*14858 FILLER_105_1730
*14859 FILLER_105_1738
*14860 FILLER_105_1746
*14861 FILLER_105_1754
*14862 FILLER_105_1762
*14863 FILLER_105_1770
*14864 FILLER_105_1778
*14865 FILLER_105_1786
*14866 FILLER_105_1788
*14867 FILLER_105_1790
*14868 FILLER_105_1798
*14869 FILLER_105_1806
*14870 FILLER_105_1814
*14871 FILLER_105_1822
*14872 FILLER_105_1830
*14873 FILLER_105_1838
*14874 FILLER_105_1846
*14875 FILLER_105_1848
*14876 FILLER_105_1850
*14877 FILLER_105_1858
*14878 FILLER_105_1866
*14879 FILLER_105_1874
*14880 FILLER_105_1882
*14881 FILLER_105_1890
*14882 FILLER_105_1898
*14883 FILLER_105_1906
*14884 FILLER_105_1908
*14885 FILLER_105_1910
*14886 FILLER_105_1918
*14887 FILLER_105_1926
*14888 FILLER_105_1934
*14889 FILLER_105_1942
*14890 FILLER_105_1950
*14891 FILLER_105_1958
*14892 FILLER_105_1966
*14893 FILLER_105_1968
*14894 FILLER_105_1970
*14895 FILLER_105_1978
*14896 FILLER_105_1986
*14897 FILLER_105_1994
*14898 FILLER_105_2002
*14899 FILLER_105_2010
*14900 FILLER_105_2018
*14901 FILLER_105_2026
*14902 FILLER_105_2028
*14903 FILLER_105_2030
*14904 FILLER_105_2038
*14905 FILLER_105_2046
*14906 FILLER_105_2054
*14907 FILLER_105_2062
*14908 FILLER_105_2070
*14909 FILLER_105_2078
*14910 FILLER_105_2086
*14911 FILLER_105_2088
*14912 FILLER_105_2090
*14913 FILLER_105_2098
*14914 FILLER_105_2106
*14915 FILLER_105_2114
*14916 FILLER_105_2122
*14828 FILLER_105_24
*14829 FILLER_105_32
*14830 FILLER_105_36
*14831 FILLER_105_38
*14826 FILLER_105_8
*14917 FILLER_106_0
*14923 FILLER_106_1549
*14924 FILLER_106_1557
*14925 FILLER_106_1565
*14926 FILLER_106_1573
*14927 FILLER_106_1577
*14928 FILLER_106_1580
*14929 FILLER_106_1588
*14930 FILLER_106_1596
*14919 FILLER_106_16
*14931 FILLER_106_1604
*14932 FILLER_106_1612
*14933 FILLER_106_1620
*14934 FILLER_106_1628
*14935 FILLER_106_1636
*14936 FILLER_106_1638
*14937 FILLER_106_1640
*14938 FILLER_106_1648
*14939 FILLER_106_1656
*14940 FILLER_106_1664
*14941 FILLER_106_1672
*14942 FILLER_106_1680
*14943 FILLER_106_1688
*14944 FILLER_106_1696
*14945 FILLER_106_1698
*14946 FILLER_106_1700
*14947 FILLER_106_1708
*14948 FILLER_106_1716
*14949 FILLER_106_1724
*14950 FILLER_106_1732
*14951 FILLER_106_1740
*14952 FILLER_106_1748
*14953 FILLER_106_1756
*14954 FILLER_106_1758
*14955 FILLER_106_1760
*14956 FILLER_106_1768
*14957 FILLER_106_1776
*14958 FILLER_106_1784
*14959 FILLER_106_1792
*14960 FILLER_106_1800
*14961 FILLER_106_1808
*14962 FILLER_106_1816
*14963 FILLER_106_1818
*14964 FILLER_106_1820
*14965 FILLER_106_1828
*14966 FILLER_106_1836
*14967 FILLER_106_1844
*14968 FILLER_106_1852
*14969 FILLER_106_1860
*14970 FILLER_106_1868
*14971 FILLER_106_1876
*14972 FILLER_106_1878
*14973 FILLER_106_1880
*14974 FILLER_106_1888
*14975 FILLER_106_1896
*14976 FILLER_106_1904
*14977 FILLER_106_1912
*14978 FILLER_106_1920
*14979 FILLER_106_1928
*14980 FILLER_106_1936
*14981 FILLER_106_1938
*14982 FILLER_106_1940
*14983 FILLER_106_1948
*14984 FILLER_106_1956
*14985 FILLER_106_1964
*14986 FILLER_106_1972
*14987 FILLER_106_1980
*14988 FILLER_106_1988
*14989 FILLER_106_1996
*14990 FILLER_106_1998
*14991 FILLER_106_2000
*14992 FILLER_106_2008
*14993 FILLER_106_2016
*14994 FILLER_106_2024
*14995 FILLER_106_2032
*14996 FILLER_106_2040
*14997 FILLER_106_2048
*14998 FILLER_106_2056
*14999 FILLER_106_2058
*15000 FILLER_106_2060
*15001 FILLER_106_2068
*15002 FILLER_106_2076
*15003 FILLER_106_2084
*15004 FILLER_106_2092
*15005 FILLER_106_2100
*15006 FILLER_106_2108
*15007 FILLER_106_2116
*15008 FILLER_106_2118
*15009 FILLER_106_2120
*15010 FILLER_106_2128
*14920 FILLER_106_24
*14921 FILLER_106_28
*14922 FILLER_106_31
*14918 FILLER_106_8
*15011 FILLER_107_0
*15018 FILLER_107_1549
*15019 FILLER_107_1557
*15020 FILLER_107_1565
*15021 FILLER_107_1573
*15022 FILLER_107_1581
*15023 FILLER_107_1589
*15024 FILLER_107_1597
*15013 FILLER_107_16
*15025 FILLER_107_1605
*15026 FILLER_107_1610
*15027 FILLER_107_1618
*15028 FILLER_107_1626
*15029 FILLER_107_1634
*15030 FILLER_107_1642
*15031 FILLER_107_1650
*15032 FILLER_107_1658
*15033 FILLER_107_1666
*15034 FILLER_107_1668
*15035 FILLER_107_1670
*15036 FILLER_107_1678
*15037 FILLER_107_1686
*15038 FILLER_107_1694
*15039 FILLER_107_1702
*15040 FILLER_107_1710
*15041 FILLER_107_1718
*15042 FILLER_107_1726
*15043 FILLER_107_1728
*15044 FILLER_107_1730
*15045 FILLER_107_1738
*15046 FILLER_107_1746
*15047 FILLER_107_1754
*15048 FILLER_107_1762
*15049 FILLER_107_1770
*15050 FILLER_107_1778
*15051 FILLER_107_1786
*15052 FILLER_107_1788
*15053 FILLER_107_1790
*15054 FILLER_107_1798
*15055 FILLER_107_1806
*15056 FILLER_107_1814
*15057 FILLER_107_1822
*15058 FILLER_107_1830
*15059 FILLER_107_1838
*15060 FILLER_107_1846
*15061 FILLER_107_1848
*15062 FILLER_107_1850
*15063 FILLER_107_1858
*15064 FILLER_107_1866
*15065 FILLER_107_1874
*15066 FILLER_107_1882
*15067 FILLER_107_1890
*15068 FILLER_107_1898
*15069 FILLER_107_1906
*15070 FILLER_107_1908
*15071 FILLER_107_1910
*15072 FILLER_107_1918
*15073 FILLER_107_1926
*15074 FILLER_107_1934
*15075 FILLER_107_1942
*15076 FILLER_107_1950
*15077 FILLER_107_1958
*15078 FILLER_107_1966
*15079 FILLER_107_1968
*15080 FILLER_107_1970
*15081 FILLER_107_1978
*15082 FILLER_107_1986
*15083 FILLER_107_1994
*15084 FILLER_107_2002
*15085 FILLER_107_2010
*15086 FILLER_107_2018
*15087 FILLER_107_2026
*15088 FILLER_107_2028
*15089 FILLER_107_2030
*15090 FILLER_107_2038
*15091 FILLER_107_2046
*15092 FILLER_107_2054
*15093 FILLER_107_2062
*15094 FILLER_107_2070
*15095 FILLER_107_2078
*15096 FILLER_107_2086
*15097 FILLER_107_2088
*15098 FILLER_107_2090
*15099 FILLER_107_2098
*15100 FILLER_107_2106
*15101 FILLER_107_2114
*15102 FILLER_107_2122
*15014 FILLER_107_24
*15015 FILLER_107_32
*15016 FILLER_107_36
*15017 FILLER_107_38
*15012 FILLER_107_8
*15103 FILLER_108_0
*15109 FILLER_108_1549
*15110 FILLER_108_1557
*15111 FILLER_108_1565
*15112 FILLER_108_1573
*15113 FILLER_108_1577
*15114 FILLER_108_1580
*15115 FILLER_108_1588
*15116 FILLER_108_1596
*15105 FILLER_108_16
*15117 FILLER_108_1604
*15118 FILLER_108_1612
*15119 FILLER_108_1620
*15120 FILLER_108_1628
*15121 FILLER_108_1636
*15122 FILLER_108_1638
*15123 FILLER_108_1640
*15124 FILLER_108_1648
*15125 FILLER_108_1656
*15126 FILLER_108_1664
*15127 FILLER_108_1672
*15128 FILLER_108_1680
*15129 FILLER_108_1688
*15130 FILLER_108_1696
*15131 FILLER_108_1698
*15132 FILLER_108_1700
*15133 FILLER_108_1708
*15134 FILLER_108_1716
*15135 FILLER_108_1724
*15136 FILLER_108_1732
*15137 FILLER_108_1740
*15138 FILLER_108_1748
*15139 FILLER_108_1756
*15140 FILLER_108_1758
*15141 FILLER_108_1760
*15142 FILLER_108_1768
*15143 FILLER_108_1776
*15144 FILLER_108_1784
*15145 FILLER_108_1792
*15146 FILLER_108_1800
*15147 FILLER_108_1808
*15148 FILLER_108_1816
*15149 FILLER_108_1818
*15150 FILLER_108_1820
*15151 FILLER_108_1828
*15152 FILLER_108_1836
*15153 FILLER_108_1844
*15154 FILLER_108_1852
*15155 FILLER_108_1860
*15156 FILLER_108_1868
*15157 FILLER_108_1876
*15158 FILLER_108_1878
*15159 FILLER_108_1880
*15160 FILLER_108_1888
*15161 FILLER_108_1896
*15162 FILLER_108_1904
*15163 FILLER_108_1912
*15164 FILLER_108_1920
*15165 FILLER_108_1928
*15166 FILLER_108_1936
*15167 FILLER_108_1938
*15168 FILLER_108_1940
*15169 FILLER_108_1948
*15170 FILLER_108_1956
*15171 FILLER_108_1964
*15172 FILLER_108_1972
*15173 FILLER_108_1980
*15174 FILLER_108_1988
*15175 FILLER_108_1996
*15176 FILLER_108_1998
*15177 FILLER_108_2000
*15178 FILLER_108_2008
*15179 FILLER_108_2016
*15180 FILLER_108_2024
*15181 FILLER_108_2032
*15182 FILLER_108_2040
*15183 FILLER_108_2048
*15184 FILLER_108_2056
*15185 FILLER_108_2058
*15186 FILLER_108_2060
*15187 FILLER_108_2068
*15188 FILLER_108_2076
*15189 FILLER_108_2084
*15190 FILLER_108_2092
*15191 FILLER_108_2100
*15192 FILLER_108_2108
*15193 FILLER_108_2116
*15194 FILLER_108_2118
*15195 FILLER_108_2120
*15196 FILLER_108_2128
*15106 FILLER_108_24
*15107 FILLER_108_28
*15108 FILLER_108_31
*15104 FILLER_108_8
*15197 FILLER_109_0
*15204 FILLER_109_1549
*15205 FILLER_109_1557
*15206 FILLER_109_1565
*15207 FILLER_109_1573
*15208 FILLER_109_1581
*15209 FILLER_109_1589
*15210 FILLER_109_1597
*15199 FILLER_109_16
*15211 FILLER_109_1605
*15212 FILLER_109_1610
*15213 FILLER_109_1618
*15214 FILLER_109_1626
*15215 FILLER_109_1634
*15216 FILLER_109_1642
*15217 FILLER_109_1650
*15218 FILLER_109_1658
*15219 FILLER_109_1666
*15220 FILLER_109_1668
*15221 FILLER_109_1670
*15222 FILLER_109_1678
*15223 FILLER_109_1686
*15224 FILLER_109_1694
*15225 FILLER_109_1702
*15226 FILLER_109_1710
*15227 FILLER_109_1718
*15228 FILLER_109_1726
*15229 FILLER_109_1728
*15230 FILLER_109_1730
*15231 FILLER_109_1738
*15232 FILLER_109_1746
*15233 FILLER_109_1754
*15234 FILLER_109_1762
*15235 FILLER_109_1770
*15236 FILLER_109_1778
*15237 FILLER_109_1786
*15238 FILLER_109_1788
*15239 FILLER_109_1790
*15240 FILLER_109_1798
*15241 FILLER_109_1806
*15242 FILLER_109_1814
*15243 FILLER_109_1822
*15244 FILLER_109_1830
*15245 FILLER_109_1838
*15246 FILLER_109_1846
*15247 FILLER_109_1848
*15248 FILLER_109_1850
*15249 FILLER_109_1858
*15250 FILLER_109_1866
*15251 FILLER_109_1874
*15252 FILLER_109_1882
*15253 FILLER_109_1890
*15254 FILLER_109_1898
*15255 FILLER_109_1906
*15256 FILLER_109_1908
*15257 FILLER_109_1910
*15258 FILLER_109_1918
*15259 FILLER_109_1926
*15260 FILLER_109_1934
*15261 FILLER_109_1942
*15262 FILLER_109_1950
*15263 FILLER_109_1958
*15264 FILLER_109_1966
*15265 FILLER_109_1968
*15266 FILLER_109_1970
*15267 FILLER_109_1978
*15268 FILLER_109_1986
*15269 FILLER_109_1994
*15270 FILLER_109_2002
*15271 FILLER_109_2010
*15272 FILLER_109_2018
*15273 FILLER_109_2026
*15274 FILLER_109_2028
*15275 FILLER_109_2030
*15276 FILLER_109_2038
*15277 FILLER_109_2046
*15278 FILLER_109_2054
*15279 FILLER_109_2062
*15280 FILLER_109_2070
*15281 FILLER_109_2078
*15282 FILLER_109_2086
*15283 FILLER_109_2088
*15284 FILLER_109_2090
*15285 FILLER_109_2098
*15286 FILLER_109_2106
*15287 FILLER_109_2114
*15288 FILLER_109_2122
*15200 FILLER_109_24
*15201 FILLER_109_32
*15202 FILLER_109_36
*15203 FILLER_109_38
*15198 FILLER_109_8
*5989 FILLER_10_0
*5995 FILLER_10_1549
*5996 FILLER_10_1557
*5997 FILLER_10_1565
*5998 FILLER_10_1573
*5999 FILLER_10_1577
*6000 FILLER_10_1580
*6001 FILLER_10_1588
*6002 FILLER_10_1596
*5991 FILLER_10_16
*6003 FILLER_10_1604
*6004 FILLER_10_1612
*6005 FILLER_10_1620
*6006 FILLER_10_1628
*6007 FILLER_10_1636
*6008 FILLER_10_1638
*6009 FILLER_10_1640
*6010 FILLER_10_1648
*6011 FILLER_10_1656
*6012 FILLER_10_1664
*6013 FILLER_10_1672
*6014 FILLER_10_1680
*6015 FILLER_10_1688
*6016 FILLER_10_1696
*6017 FILLER_10_1698
*6018 FILLER_10_1700
*6019 FILLER_10_1708
*6020 FILLER_10_1716
*6021 FILLER_10_1724
*6022 FILLER_10_1732
*6023 FILLER_10_1740
*6024 FILLER_10_1748
*6025 FILLER_10_1756
*6026 FILLER_10_1758
*6027 FILLER_10_1760
*6028 FILLER_10_1768
*6029 FILLER_10_1776
*6030 FILLER_10_1784
*6031 FILLER_10_1792
*6032 FILLER_10_1800
*6033 FILLER_10_1808
*6034 FILLER_10_1816
*6035 FILLER_10_1818
*6036 FILLER_10_1820
*6037 FILLER_10_1828
*6038 FILLER_10_1836
*6039 FILLER_10_1844
*6040 FILLER_10_1852
*6041 FILLER_10_1860
*6042 FILLER_10_1868
*6043 FILLER_10_1876
*6044 FILLER_10_1878
*6045 FILLER_10_1880
*6046 FILLER_10_1888
*6047 FILLER_10_1896
*6048 FILLER_10_1904
*6049 FILLER_10_1912
*6050 FILLER_10_1920
*6051 FILLER_10_1928
*6052 FILLER_10_1936
*6053 FILLER_10_1938
*6054 FILLER_10_1940
*6055 FILLER_10_1948
*6056 FILLER_10_1956
*6057 FILLER_10_1964
*6058 FILLER_10_1972
*6059 FILLER_10_1980
*6060 FILLER_10_1988
*6061 FILLER_10_1996
*6062 FILLER_10_1998
*6063 FILLER_10_2000
*6064 FILLER_10_2008
*6065 FILLER_10_2016
*6066 FILLER_10_2024
*6067 FILLER_10_2032
*6068 FILLER_10_2040
*6069 FILLER_10_2048
*6070 FILLER_10_2056
*6071 FILLER_10_2058
*6072 FILLER_10_2060
*6073 FILLER_10_2068
*6074 FILLER_10_2076
*6075 FILLER_10_2084
*6076 FILLER_10_2092
*6077 FILLER_10_2100
*6078 FILLER_10_2108
*6079 FILLER_10_2116
*6080 FILLER_10_2118
*6081 FILLER_10_2120
*6082 FILLER_10_2128
*5992 FILLER_10_24
*5993 FILLER_10_28
*5994 FILLER_10_31
*5990 FILLER_10_8
*15289 FILLER_110_0
*15295 FILLER_110_1549
*15296 FILLER_110_1557
*15297 FILLER_110_1565
*15298 FILLER_110_1573
*15299 FILLER_110_1577
*15300 FILLER_110_1580
*15301 FILLER_110_1588
*15302 FILLER_110_1596
*15291 FILLER_110_16
*15303 FILLER_110_1604
*15304 FILLER_110_1612
*15305 FILLER_110_1620
*15306 FILLER_110_1628
*15307 FILLER_110_1636
*15308 FILLER_110_1638
*15309 FILLER_110_1640
*15310 FILLER_110_1648
*15311 FILLER_110_1656
*15312 FILLER_110_1664
*15313 FILLER_110_1672
*15314 FILLER_110_1680
*15315 FILLER_110_1688
*15316 FILLER_110_1696
*15317 FILLER_110_1698
*15318 FILLER_110_1700
*15319 FILLER_110_1708
*15320 FILLER_110_1716
*15321 FILLER_110_1724
*15322 FILLER_110_1732
*15323 FILLER_110_1740
*15324 FILLER_110_1748
*15325 FILLER_110_1756
*15326 FILLER_110_1758
*15327 FILLER_110_1760
*15328 FILLER_110_1768
*15329 FILLER_110_1776
*15330 FILLER_110_1784
*15331 FILLER_110_1792
*15332 FILLER_110_1800
*15333 FILLER_110_1808
*15334 FILLER_110_1816
*15335 FILLER_110_1818
*15336 FILLER_110_1820
*15337 FILLER_110_1828
*15338 FILLER_110_1836
*15339 FILLER_110_1844
*15340 FILLER_110_1852
*15341 FILLER_110_1860
*15342 FILLER_110_1868
*15343 FILLER_110_1876
*15344 FILLER_110_1878
*15345 FILLER_110_1880
*15346 FILLER_110_1888
*15347 FILLER_110_1896
*15348 FILLER_110_1904
*15349 FILLER_110_1912
*15350 FILLER_110_1920
*15351 FILLER_110_1928
*15352 FILLER_110_1936
*15353 FILLER_110_1938
*15354 FILLER_110_1940
*15355 FILLER_110_1948
*15356 FILLER_110_1956
*15357 FILLER_110_1964
*15358 FILLER_110_1972
*15359 FILLER_110_1980
*15360 FILLER_110_1988
*15361 FILLER_110_1996
*15362 FILLER_110_1998
*15363 FILLER_110_2000
*15364 FILLER_110_2008
*15365 FILLER_110_2016
*15366 FILLER_110_2024
*15367 FILLER_110_2032
*15368 FILLER_110_2040
*15369 FILLER_110_2048
*15370 FILLER_110_2056
*15371 FILLER_110_2058
*15372 FILLER_110_2060
*15373 FILLER_110_2068
*15374 FILLER_110_2076
*15375 FILLER_110_2084
*15376 FILLER_110_2092
*15377 FILLER_110_2100
*15378 FILLER_110_2108
*15379 FILLER_110_2116
*15380 FILLER_110_2118
*15381 FILLER_110_2120
*15382 FILLER_110_2128
*15292 FILLER_110_24
*15293 FILLER_110_28
*15294 FILLER_110_31
*15290 FILLER_110_8
*15383 FILLER_111_0
*15390 FILLER_111_1549
*15391 FILLER_111_1557
*15392 FILLER_111_1565
*15393 FILLER_111_1573
*15394 FILLER_111_1581
*15395 FILLER_111_1589
*15396 FILLER_111_1597
*15385 FILLER_111_16
*15397 FILLER_111_1605
*15398 FILLER_111_1610
*15399 FILLER_111_1618
*15400 FILLER_111_1626
*15401 FILLER_111_1634
*15402 FILLER_111_1642
*15403 FILLER_111_1650
*15404 FILLER_111_1658
*15405 FILLER_111_1666
*15406 FILLER_111_1668
*15407 FILLER_111_1670
*15408 FILLER_111_1678
*15409 FILLER_111_1686
*15410 FILLER_111_1694
*15411 FILLER_111_1702
*15412 FILLER_111_1710
*15413 FILLER_111_1718
*15414 FILLER_111_1726
*15415 FILLER_111_1728
*15416 FILLER_111_1730
*15417 FILLER_111_1738
*15418 FILLER_111_1746
*15419 FILLER_111_1754
*15420 FILLER_111_1762
*15421 FILLER_111_1770
*15422 FILLER_111_1778
*15423 FILLER_111_1786
*15424 FILLER_111_1788
*15425 FILLER_111_1790
*15426 FILLER_111_1798
*15427 FILLER_111_1806
*15428 FILLER_111_1814
*15429 FILLER_111_1822
*15430 FILLER_111_1830
*15431 FILLER_111_1838
*15432 FILLER_111_1846
*15433 FILLER_111_1848
*15434 FILLER_111_1850
*15435 FILLER_111_1858
*15436 FILLER_111_1866
*15437 FILLER_111_1874
*15438 FILLER_111_1882
*15439 FILLER_111_1890
*15440 FILLER_111_1898
*15441 FILLER_111_1906
*15442 FILLER_111_1908
*15443 FILLER_111_1910
*15444 FILLER_111_1918
*15445 FILLER_111_1926
*15446 FILLER_111_1934
*15447 FILLER_111_1942
*15448 FILLER_111_1950
*15449 FILLER_111_1958
*15450 FILLER_111_1966
*15451 FILLER_111_1968
*15452 FILLER_111_1970
*15453 FILLER_111_1978
*15454 FILLER_111_1986
*15455 FILLER_111_1994
*15456 FILLER_111_2002
*15457 FILLER_111_2010
*15458 FILLER_111_2018
*15459 FILLER_111_2026
*15460 FILLER_111_2028
*15461 FILLER_111_2030
*15462 FILLER_111_2038
*15463 FILLER_111_2046
*15464 FILLER_111_2054
*15465 FILLER_111_2062
*15466 FILLER_111_2070
*15467 FILLER_111_2078
*15468 FILLER_111_2086
*15469 FILLER_111_2088
*15470 FILLER_111_2090
*15471 FILLER_111_2098
*15472 FILLER_111_2106
*15473 FILLER_111_2114
*15474 FILLER_111_2122
*15386 FILLER_111_24
*15387 FILLER_111_32
*15388 FILLER_111_36
*15389 FILLER_111_38
*15384 FILLER_111_8
*15475 FILLER_112_0
*15481 FILLER_112_1549
*15482 FILLER_112_1557
*15483 FILLER_112_1565
*15484 FILLER_112_1573
*15485 FILLER_112_1577
*15486 FILLER_112_1580
*15487 FILLER_112_1588
*15488 FILLER_112_1596
*15477 FILLER_112_16
*15489 FILLER_112_1604
*15490 FILLER_112_1612
*15491 FILLER_112_1620
*15492 FILLER_112_1628
*15493 FILLER_112_1636
*15494 FILLER_112_1638
*15495 FILLER_112_1640
*15496 FILLER_112_1648
*15497 FILLER_112_1656
*15498 FILLER_112_1664
*15499 FILLER_112_1672
*15500 FILLER_112_1680
*15501 FILLER_112_1688
*15502 FILLER_112_1696
*15503 FILLER_112_1698
*15504 FILLER_112_1700
*15505 FILLER_112_1708
*15506 FILLER_112_1716
*15507 FILLER_112_1724
*15508 FILLER_112_1732
*15509 FILLER_112_1740
*15510 FILLER_112_1748
*15511 FILLER_112_1756
*15512 FILLER_112_1758
*15513 FILLER_112_1760
*15514 FILLER_112_1768
*15515 FILLER_112_1776
*15516 FILLER_112_1784
*15517 FILLER_112_1792
*15518 FILLER_112_1800
*15519 FILLER_112_1808
*15520 FILLER_112_1816
*15521 FILLER_112_1818
*15522 FILLER_112_1820
*15523 FILLER_112_1828
*15524 FILLER_112_1836
*15525 FILLER_112_1844
*15526 FILLER_112_1852
*15527 FILLER_112_1860
*15528 FILLER_112_1868
*15529 FILLER_112_1876
*15530 FILLER_112_1878
*15531 FILLER_112_1880
*15532 FILLER_112_1888
*15533 FILLER_112_1896
*15534 FILLER_112_1904
*15535 FILLER_112_1912
*15536 FILLER_112_1920
*15537 FILLER_112_1928
*15538 FILLER_112_1936
*15539 FILLER_112_1938
*15540 FILLER_112_1940
*15541 FILLER_112_1948
*15542 FILLER_112_1956
*15543 FILLER_112_1964
*15544 FILLER_112_1972
*15545 FILLER_112_1980
*15546 FILLER_112_1988
*15547 FILLER_112_1996
*15548 FILLER_112_1998
*15549 FILLER_112_2000
*15550 FILLER_112_2008
*15551 FILLER_112_2016
*15552 FILLER_112_2024
*15553 FILLER_112_2032
*15554 FILLER_112_2040
*15555 FILLER_112_2048
*15556 FILLER_112_2056
*15557 FILLER_112_2058
*15558 FILLER_112_2060
*15559 FILLER_112_2068
*15560 FILLER_112_2076
*15561 FILLER_112_2084
*15562 FILLER_112_2092
*15563 FILLER_112_2100
*15564 FILLER_112_2108
*15565 FILLER_112_2116
*15566 FILLER_112_2118
*15567 FILLER_112_2120
*15568 FILLER_112_2128
*15478 FILLER_112_24
*15479 FILLER_112_28
*15480 FILLER_112_31
*15476 FILLER_112_8
*15569 FILLER_113_0
*15576 FILLER_113_1549
*15577 FILLER_113_1557
*15578 FILLER_113_1565
*15579 FILLER_113_1573
*15580 FILLER_113_1581
*15581 FILLER_113_1589
*15582 FILLER_113_1597
*15571 FILLER_113_16
*15583 FILLER_113_1605
*15584 FILLER_113_1610
*15585 FILLER_113_1618
*15586 FILLER_113_1626
*15587 FILLER_113_1634
*15588 FILLER_113_1642
*15589 FILLER_113_1650
*15590 FILLER_113_1658
*15591 FILLER_113_1666
*15592 FILLER_113_1668
*15593 FILLER_113_1670
*15594 FILLER_113_1678
*15595 FILLER_113_1686
*15596 FILLER_113_1694
*15597 FILLER_113_1702
*15598 FILLER_113_1710
*15599 FILLER_113_1718
*15600 FILLER_113_1726
*15601 FILLER_113_1728
*15602 FILLER_113_1730
*15603 FILLER_113_1738
*15604 FILLER_113_1746
*15605 FILLER_113_1754
*15606 FILLER_113_1762
*15607 FILLER_113_1770
*15608 FILLER_113_1778
*15609 FILLER_113_1786
*15610 FILLER_113_1788
*15611 FILLER_113_1790
*15612 FILLER_113_1798
*15613 FILLER_113_1806
*15614 FILLER_113_1814
*15615 FILLER_113_1822
*15616 FILLER_113_1830
*15617 FILLER_113_1838
*15618 FILLER_113_1846
*15619 FILLER_113_1848
*15620 FILLER_113_1850
*15621 FILLER_113_1858
*15622 FILLER_113_1866
*15623 FILLER_113_1874
*15624 FILLER_113_1882
*15625 FILLER_113_1890
*15626 FILLER_113_1898
*15627 FILLER_113_1906
*15628 FILLER_113_1908
*15629 FILLER_113_1910
*15630 FILLER_113_1918
*15631 FILLER_113_1926
*15632 FILLER_113_1934
*15633 FILLER_113_1942
*15634 FILLER_113_1950
*15635 FILLER_113_1958
*15636 FILLER_113_1966
*15637 FILLER_113_1968
*15638 FILLER_113_1970
*15639 FILLER_113_1978
*15640 FILLER_113_1986
*15641 FILLER_113_1994
*15642 FILLER_113_2002
*15643 FILLER_113_2010
*15644 FILLER_113_2018
*15645 FILLER_113_2026
*15646 FILLER_113_2028
*15647 FILLER_113_2030
*15648 FILLER_113_2038
*15649 FILLER_113_2046
*15650 FILLER_113_2054
*15651 FILLER_113_2062
*15652 FILLER_113_2070
*15653 FILLER_113_2078
*15654 FILLER_113_2086
*15655 FILLER_113_2088
*15656 FILLER_113_2090
*15657 FILLER_113_2098
*15658 FILLER_113_2106
*15659 FILLER_113_2114
*15660 FILLER_113_2122
*15572 FILLER_113_24
*15573 FILLER_113_32
*15574 FILLER_113_36
*15575 FILLER_113_38
*15570 FILLER_113_8
*15661 FILLER_114_0
*15667 FILLER_114_1549
*15668 FILLER_114_1557
*15669 FILLER_114_1565
*15670 FILLER_114_1573
*15671 FILLER_114_1577
*15672 FILLER_114_1580
*15673 FILLER_114_1588
*15674 FILLER_114_1596
*15663 FILLER_114_16
*15675 FILLER_114_1604
*15676 FILLER_114_1612
*15677 FILLER_114_1620
*15678 FILLER_114_1628
*15679 FILLER_114_1636
*15680 FILLER_114_1638
*15681 FILLER_114_1640
*15682 FILLER_114_1648
*15683 FILLER_114_1656
*15684 FILLER_114_1664
*15685 FILLER_114_1672
*15686 FILLER_114_1680
*15687 FILLER_114_1688
*15688 FILLER_114_1696
*15689 FILLER_114_1698
*15690 FILLER_114_1700
*15691 FILLER_114_1708
*15692 FILLER_114_1716
*15693 FILLER_114_1724
*15694 FILLER_114_1732
*15695 FILLER_114_1740
*15696 FILLER_114_1748
*15697 FILLER_114_1756
*15698 FILLER_114_1758
*15699 FILLER_114_1760
*15700 FILLER_114_1768
*15701 FILLER_114_1776
*15702 FILLER_114_1784
*15703 FILLER_114_1792
*15704 FILLER_114_1800
*15705 FILLER_114_1808
*15706 FILLER_114_1816
*15707 FILLER_114_1818
*15708 FILLER_114_1820
*15709 FILLER_114_1828
*15710 FILLER_114_1836
*15711 FILLER_114_1844
*15712 FILLER_114_1852
*15713 FILLER_114_1860
*15714 FILLER_114_1868
*15715 FILLER_114_1876
*15716 FILLER_114_1878
*15717 FILLER_114_1880
*15718 FILLER_114_1888
*15719 FILLER_114_1896
*15720 FILLER_114_1904
*15721 FILLER_114_1912
*15722 FILLER_114_1920
*15723 FILLER_114_1928
*15724 FILLER_114_1936
*15725 FILLER_114_1938
*15726 FILLER_114_1940
*15727 FILLER_114_1948
*15728 FILLER_114_1956
*15729 FILLER_114_1964
*15730 FILLER_114_1972
*15731 FILLER_114_1980
*15732 FILLER_114_1988
*15733 FILLER_114_1996
*15734 FILLER_114_1998
*15735 FILLER_114_2000
*15736 FILLER_114_2008
*15737 FILLER_114_2016
*15738 FILLER_114_2024
*15739 FILLER_114_2032
*15740 FILLER_114_2040
*15741 FILLER_114_2048
*15742 FILLER_114_2056
*15743 FILLER_114_2058
*15744 FILLER_114_2060
*15745 FILLER_114_2068
*15746 FILLER_114_2076
*15747 FILLER_114_2084
*15748 FILLER_114_2092
*15749 FILLER_114_2100
*15750 FILLER_114_2108
*15751 FILLER_114_2116
*15752 FILLER_114_2118
*15753 FILLER_114_2120
*15754 FILLER_114_2128
*15664 FILLER_114_24
*15665 FILLER_114_28
*15666 FILLER_114_31
*15662 FILLER_114_8
*15755 FILLER_115_0
*15762 FILLER_115_1549
*15763 FILLER_115_1557
*15764 FILLER_115_1565
*15765 FILLER_115_1573
*15766 FILLER_115_1581
*15767 FILLER_115_1589
*15768 FILLER_115_1597
*15757 FILLER_115_16
*15769 FILLER_115_1605
*15770 FILLER_115_1610
*15771 FILLER_115_1618
*15772 FILLER_115_1626
*15773 FILLER_115_1634
*15774 FILLER_115_1642
*15775 FILLER_115_1650
*15776 FILLER_115_1658
*15777 FILLER_115_1666
*15778 FILLER_115_1668
*15779 FILLER_115_1670
*15780 FILLER_115_1678
*15781 FILLER_115_1686
*15782 FILLER_115_1694
*15783 FILLER_115_1702
*15784 FILLER_115_1710
*15785 FILLER_115_1718
*15786 FILLER_115_1726
*15787 FILLER_115_1728
*15788 FILLER_115_1730
*15789 FILLER_115_1738
*15790 FILLER_115_1746
*15791 FILLER_115_1754
*15792 FILLER_115_1762
*15793 FILLER_115_1770
*15794 FILLER_115_1778
*15795 FILLER_115_1786
*15796 FILLER_115_1788
*15797 FILLER_115_1790
*15798 FILLER_115_1798
*15799 FILLER_115_1806
*15800 FILLER_115_1814
*15801 FILLER_115_1822
*15802 FILLER_115_1830
*15803 FILLER_115_1838
*15804 FILLER_115_1846
*15805 FILLER_115_1848
*15806 FILLER_115_1850
*15807 FILLER_115_1858
*15808 FILLER_115_1866
*15809 FILLER_115_1874
*15810 FILLER_115_1882
*15811 FILLER_115_1890
*15812 FILLER_115_1898
*15813 FILLER_115_1906
*15814 FILLER_115_1908
*15815 FILLER_115_1910
*15816 FILLER_115_1918
*15817 FILLER_115_1926
*15818 FILLER_115_1934
*15819 FILLER_115_1942
*15820 FILLER_115_1950
*15821 FILLER_115_1958
*15822 FILLER_115_1966
*15823 FILLER_115_1968
*15824 FILLER_115_1970
*15825 FILLER_115_1978
*15826 FILLER_115_1986
*15827 FILLER_115_1994
*15828 FILLER_115_2002
*15829 FILLER_115_2010
*15830 FILLER_115_2018
*15831 FILLER_115_2026
*15832 FILLER_115_2028
*15833 FILLER_115_2030
*15834 FILLER_115_2038
*15835 FILLER_115_2046
*15836 FILLER_115_2054
*15837 FILLER_115_2062
*15838 FILLER_115_2070
*15839 FILLER_115_2078
*15840 FILLER_115_2086
*15841 FILLER_115_2088
*15842 FILLER_115_2090
*15843 FILLER_115_2098
*15844 FILLER_115_2106
*15845 FILLER_115_2114
*15846 FILLER_115_2122
*15758 FILLER_115_24
*15759 FILLER_115_32
*15760 FILLER_115_36
*15761 FILLER_115_38
*15756 FILLER_115_8
*15847 FILLER_116_0
*16014 FILLER_116_1007
*16015 FILLER_116_1015
*16016 FILLER_116_1019
*16017 FILLER_116_1021
*16018 FILLER_116_1029
*16019 FILLER_116_1037
*16020 FILLER_116_1045
*16021 FILLER_116_1049
*16022 FILLER_116_1051
*16023 FILLER_116_1059
*16024 FILLER_116_1067
*15864 FILLER_116_107
*16025 FILLER_116_1075
*16026 FILLER_116_1079
*16027 FILLER_116_1081
*16028 FILLER_116_1089
*16029 FILLER_116_1097
*16030 FILLER_116_1105
*16031 FILLER_116_1109
*16032 FILLER_116_1111
*16033 FILLER_116_1119
*16034 FILLER_116_1127
*16035 FILLER_116_1135
*16036 FILLER_116_1139
*16037 FILLER_116_1141
*16038 FILLER_116_1149
*15865 FILLER_116_115
*16039 FILLER_116_1157
*16040 FILLER_116_1165
*16041 FILLER_116_1169
*16042 FILLER_116_1171
*16043 FILLER_116_1179
*16044 FILLER_116_1187
*15866 FILLER_116_119
*16045 FILLER_116_1195
*16046 FILLER_116_1199
*16047 FILLER_116_1201
*16048 FILLER_116_1209
*15867 FILLER_116_121
*16049 FILLER_116_1217
*16050 FILLER_116_1225
*16051 FILLER_116_1229
*16052 FILLER_116_1231
*16053 FILLER_116_1239
*16054 FILLER_116_1247
*16055 FILLER_116_1255
*16056 FILLER_116_1259
*16057 FILLER_116_1261
*16058 FILLER_116_1269
*16059 FILLER_116_1277
*16060 FILLER_116_1285
*16061 FILLER_116_1289
*15868 FILLER_116_129
*16062 FILLER_116_1291
*16063 FILLER_116_1299
*16064 FILLER_116_1307
*16065 FILLER_116_1315
*16066 FILLER_116_1319
*16067 FILLER_116_1321
*16068 FILLER_116_1329
*16069 FILLER_116_1337
*16070 FILLER_116_1345
*16071 FILLER_116_1349
*16072 FILLER_116_1351
*16073 FILLER_116_1359
*16074 FILLER_116_1367
*15869 FILLER_116_137
*16075 FILLER_116_1375
*16076 FILLER_116_1379
*16077 FILLER_116_1381
*16078 FILLER_116_1389
*16079 FILLER_116_1397
*16080 FILLER_116_1405
*16081 FILLER_116_1409
*16082 FILLER_116_1411
*16083 FILLER_116_1419
*16084 FILLER_116_1427
*16085 FILLER_116_1435
*16086 FILLER_116_1439
*16087 FILLER_116_1441
*16088 FILLER_116_1449
*15870 FILLER_116_145
*16089 FILLER_116_1457
*16090 FILLER_116_1465
*16091 FILLER_116_1469
*16092 FILLER_116_1471
*16093 FILLER_116_1479
*16094 FILLER_116_1487
*15871 FILLER_116_149
*16095 FILLER_116_1495
*16096 FILLER_116_1499
*16097 FILLER_116_1501
*16098 FILLER_116_1509
*15872 FILLER_116_151
*16099 FILLER_116_1517
*16100 FILLER_116_1525
*16101 FILLER_116_1529
*16102 FILLER_116_1531
*16103 FILLER_116_1539
*16104 FILLER_116_1547
*16105 FILLER_116_1555
*16106 FILLER_116_1559
*16107 FILLER_116_1561
*16108 FILLER_116_1569
*16109 FILLER_116_1577
*16110 FILLER_116_1585
*16111 FILLER_116_1589
*15873 FILLER_116_159
*16112 FILLER_116_1591
*16113 FILLER_116_1599
*15849 FILLER_116_16
*16114 FILLER_116_1607
*16115 FILLER_116_1615
*16116 FILLER_116_1619
*16117 FILLER_116_1621
*16118 FILLER_116_1629
*16119 FILLER_116_1637
*16120 FILLER_116_1645
*16121 FILLER_116_1649
*16122 FILLER_116_1651
*16123 FILLER_116_1659
*16124 FILLER_116_1667
*15874 FILLER_116_167
*16125 FILLER_116_1675
*16126 FILLER_116_1679
*16127 FILLER_116_1681
*16128 FILLER_116_1689
*16129 FILLER_116_1697
*16130 FILLER_116_1705
*16131 FILLER_116_1709
*16132 FILLER_116_1711
*16133 FILLER_116_1719
*16134 FILLER_116_1727
*16135 FILLER_116_1735
*16136 FILLER_116_1739
*16137 FILLER_116_1741
*16138 FILLER_116_1749
*15875 FILLER_116_175
*16139 FILLER_116_1757
*16140 FILLER_116_1765
*16141 FILLER_116_1769
*16142 FILLER_116_1771
*16143 FILLER_116_1779
*16144 FILLER_116_1787
*15876 FILLER_116_179
*16145 FILLER_116_1795
*16146 FILLER_116_1799
*16147 FILLER_116_1801
*16148 FILLER_116_1809
*15877 FILLER_116_181
*16149 FILLER_116_1817
*16150 FILLER_116_1825
*16151 FILLER_116_1829
*16152 FILLER_116_1831
*16153 FILLER_116_1839
*16154 FILLER_116_1847
*16155 FILLER_116_1855
*16156 FILLER_116_1859
*16157 FILLER_116_1861
*16158 FILLER_116_1869
*16159 FILLER_116_1877
*16160 FILLER_116_1885
*16161 FILLER_116_1889
*15878 FILLER_116_189
*16162 FILLER_116_1891
*16163 FILLER_116_1899
*16164 FILLER_116_1907
*16165 FILLER_116_1915
*16166 FILLER_116_1919
*16167 FILLER_116_1921
*16168 FILLER_116_1929
*16169 FILLER_116_1937
*16170 FILLER_116_1945
*16171 FILLER_116_1949
*16172 FILLER_116_1951
*16173 FILLER_116_1959
*16174 FILLER_116_1967
*15879 FILLER_116_197
*16175 FILLER_116_1975
*16176 FILLER_116_1979
*16177 FILLER_116_1981
*16178 FILLER_116_1989
*16179 FILLER_116_1997
*16180 FILLER_116_2005
*16181 FILLER_116_2009
*16182 FILLER_116_2011
*16183 FILLER_116_2019
*16184 FILLER_116_2027
*16185 FILLER_116_2035
*16186 FILLER_116_2039
*16187 FILLER_116_2041
*16188 FILLER_116_2049
*15880 FILLER_116_205
*16189 FILLER_116_2057
*16190 FILLER_116_2065
*16191 FILLER_116_2069
*16192 FILLER_116_2071
*16193 FILLER_116_2079
*16194 FILLER_116_2087
*15881 FILLER_116_209
*16195 FILLER_116_2095
*16196 FILLER_116_2099
*16197 FILLER_116_2101
*16198 FILLER_116_2109
*15882 FILLER_116_211
*16199 FILLER_116_2117
*16200 FILLER_116_2125
*16201 FILLER_116_2129
*15883 FILLER_116_219
*15884 FILLER_116_227
*15885 FILLER_116_235
*15886 FILLER_116_239
*15850 FILLER_116_24
*15887 FILLER_116_241
*15888 FILLER_116_249
*15889 FILLER_116_257
*15890 FILLER_116_265
*15891 FILLER_116_269
*15892 FILLER_116_271
*15893 FILLER_116_279
*15851 FILLER_116_28
*15894 FILLER_116_287
*15895 FILLER_116_295
*15896 FILLER_116_299
*15897 FILLER_116_301
*15898 FILLER_116_309
*15852 FILLER_116_31
*15899 FILLER_116_317
*15900 FILLER_116_325
*15901 FILLER_116_329
*15902 FILLER_116_331
*15903 FILLER_116_339
*15904 FILLER_116_347
*15905 FILLER_116_355
*15906 FILLER_116_359
*15907 FILLER_116_361
*15908 FILLER_116_369
*15909 FILLER_116_377
*15910 FILLER_116_385
*15911 FILLER_116_389
*15853 FILLER_116_39
*15912 FILLER_116_391
*15913 FILLER_116_399
*15914 FILLER_116_407
*15915 FILLER_116_415
*15916 FILLER_116_419
*15917 FILLER_116_421
*15918 FILLER_116_429
*15919 FILLER_116_437
*15920 FILLER_116_445
*15921 FILLER_116_449
*15922 FILLER_116_451
*15923 FILLER_116_459
*15924 FILLER_116_467
*15854 FILLER_116_47
*15925 FILLER_116_475
*15926 FILLER_116_479
*15927 FILLER_116_481
*15928 FILLER_116_489
*15929 FILLER_116_497
*15930 FILLER_116_505
*15931 FILLER_116_509
*15932 FILLER_116_511
*15933 FILLER_116_519
*15934 FILLER_116_527
*15935 FILLER_116_535
*15936 FILLER_116_539
*15937 FILLER_116_541
*15938 FILLER_116_549
*15855 FILLER_116_55
*15939 FILLER_116_557
*15940 FILLER_116_565
*15941 FILLER_116_569
*15942 FILLER_116_571
*15943 FILLER_116_579
*15944 FILLER_116_587
*15856 FILLER_116_59
*15945 FILLER_116_595
*15946 FILLER_116_599
*15947 FILLER_116_601
*15948 FILLER_116_609
*15857 FILLER_116_61
*15949 FILLER_116_617
*15950 FILLER_116_625
*15951 FILLER_116_629
*15952 FILLER_116_631
*15953 FILLER_116_639
*15954 FILLER_116_647
*15955 FILLER_116_655
*15956 FILLER_116_659
*15957 FILLER_116_661
*15958 FILLER_116_669
*15959 FILLER_116_677
*15960 FILLER_116_685
*15961 FILLER_116_689
*15858 FILLER_116_69
*15962 FILLER_116_691
*15963 FILLER_116_699
*15964 FILLER_116_707
*15965 FILLER_116_715
*15966 FILLER_116_719
*15967 FILLER_116_721
*15968 FILLER_116_729
*15969 FILLER_116_737
*15970 FILLER_116_745
*15971 FILLER_116_749
*15972 FILLER_116_751
*15973 FILLER_116_759
*15974 FILLER_116_767
*15859 FILLER_116_77
*15975 FILLER_116_775
*15976 FILLER_116_779
*15977 FILLER_116_781
*15978 FILLER_116_789
*15979 FILLER_116_797
*15848 FILLER_116_8
*15980 FILLER_116_805
*15981 FILLER_116_809
*15982 FILLER_116_811
*15983 FILLER_116_819
*15984 FILLER_116_827
*15985 FILLER_116_835
*15986 FILLER_116_839
*15987 FILLER_116_841
*15988 FILLER_116_849
*15860 FILLER_116_85
*15989 FILLER_116_857
*15990 FILLER_116_865
*15991 FILLER_116_869
*15992 FILLER_116_871
*15993 FILLER_116_879
*15994 FILLER_116_887
*15861 FILLER_116_89
*15995 FILLER_116_895
*15996 FILLER_116_899
*15997 FILLER_116_901
*15998 FILLER_116_909
*15862 FILLER_116_91
*15999 FILLER_116_917
*16000 FILLER_116_925
*16001 FILLER_116_929
*16002 FILLER_116_931
*16003 FILLER_116_939
*16004 FILLER_116_947
*16005 FILLER_116_955
*16006 FILLER_116_959
*16007 FILLER_116_961
*16008 FILLER_116_969
*16009 FILLER_116_977
*16010 FILLER_116_985
*16011 FILLER_116_989
*15863 FILLER_116_99
*16012 FILLER_116_991
*16013 FILLER_116_999
*16202 FILLER_117_0
*16347 FILLER_117_1001
*16348 FILLER_117_1009
*16215 FILLER_117_101
*16349 FILLER_117_1017
*16350 FILLER_117_1019
*16351 FILLER_117_1021
*16352 FILLER_117_1029
*16353 FILLER_117_1037
*16354 FILLER_117_1045
*16355 FILLER_117_1053
*16356 FILLER_117_1061
*16357 FILLER_117_1069
*16358 FILLER_117_1077
*16359 FILLER_117_1079
*16360 FILLER_117_1081
*16361 FILLER_117_1089
*16216 FILLER_117_109
*16362 FILLER_117_1097
*16363 FILLER_117_1105
*16364 FILLER_117_1113
*16365 FILLER_117_1121
*16366 FILLER_117_1129
*16367 FILLER_117_1137
*16368 FILLER_117_1139
*16369 FILLER_117_1141
*16370 FILLER_117_1149
*16371 FILLER_117_1157
*16372 FILLER_117_1165
*16217 FILLER_117_117
*16373 FILLER_117_1173
*16374 FILLER_117_1181
*16375 FILLER_117_1189
*16218 FILLER_117_119
*16376 FILLER_117_1197
*16377 FILLER_117_1199
*16378 FILLER_117_1201
*16379 FILLER_117_1209
*16219 FILLER_117_121
*16380 FILLER_117_1217
*16381 FILLER_117_1225
*16382 FILLER_117_1233
*16383 FILLER_117_1241
*16384 FILLER_117_1249
*16385 FILLER_117_1257
*16386 FILLER_117_1259
*16387 FILLER_117_1261
*16388 FILLER_117_1269
*16389 FILLER_117_1277
*16390 FILLER_117_1285
*16220 FILLER_117_129
*16391 FILLER_117_1293
*16392 FILLER_117_1301
*16393 FILLER_117_1309
*16394 FILLER_117_1317
*16395 FILLER_117_1319
*16396 FILLER_117_1321
*16397 FILLER_117_1329
*16398 FILLER_117_1337
*16399 FILLER_117_1345
*16400 FILLER_117_1353
*16401 FILLER_117_1361
*16402 FILLER_117_1369
*16221 FILLER_117_137
*16403 FILLER_117_1377
*16404 FILLER_117_1379
*16405 FILLER_117_1381
*16406 FILLER_117_1389
*16407 FILLER_117_1397
*16408 FILLER_117_1405
*16409 FILLER_117_1413
*16410 FILLER_117_1421
*16411 FILLER_117_1429
*16412 FILLER_117_1437
*16413 FILLER_117_1439
*16414 FILLER_117_1441
*16415 FILLER_117_1449
*16222 FILLER_117_145
*16416 FILLER_117_1457
*16417 FILLER_117_1465
*16418 FILLER_117_1473
*16419 FILLER_117_1481
*16420 FILLER_117_1489
*16421 FILLER_117_1497
*16422 FILLER_117_1499
*16423 FILLER_117_1501
*16424 FILLER_117_1509
*16425 FILLER_117_1517
*16426 FILLER_117_1525
*16223 FILLER_117_153
*16427 FILLER_117_1533
*16428 FILLER_117_1541
*16429 FILLER_117_1549
*16430 FILLER_117_1557
*16431 FILLER_117_1559
*16432 FILLER_117_1561
*16433 FILLER_117_1569
*16434 FILLER_117_1577
*16435 FILLER_117_1585
*16436 FILLER_117_1593
*16204 FILLER_117_16
*16437 FILLER_117_1601
*16438 FILLER_117_1609
*16224 FILLER_117_161
*16439 FILLER_117_1617
*16440 FILLER_117_1619
*16441 FILLER_117_1621
*16442 FILLER_117_1629
*16443 FILLER_117_1637
*16444 FILLER_117_1645
*16445 FILLER_117_1653
*16446 FILLER_117_1661
*16447 FILLER_117_1669
*16448 FILLER_117_1677
*16449 FILLER_117_1679
*16450 FILLER_117_1681
*16451 FILLER_117_1689
*16225 FILLER_117_169
*16452 FILLER_117_1697
*16453 FILLER_117_1705
*16454 FILLER_117_1713
*16455 FILLER_117_1721
*16456 FILLER_117_1729
*16457 FILLER_117_1737
*16458 FILLER_117_1739
*16459 FILLER_117_1741
*16460 FILLER_117_1749
*16461 FILLER_117_1757
*16462 FILLER_117_1765
*16226 FILLER_117_177
*16463 FILLER_117_1773
*16464 FILLER_117_1781
*16465 FILLER_117_1789
*16227 FILLER_117_179
*16466 FILLER_117_1797
*16467 FILLER_117_1799
*16468 FILLER_117_1801
*16469 FILLER_117_1809
*16228 FILLER_117_181
*16470 FILLER_117_1817
*16471 FILLER_117_1825
*16472 FILLER_117_1833
*16473 FILLER_117_1841
*16474 FILLER_117_1849
*16475 FILLER_117_1857
*16476 FILLER_117_1859
*16477 FILLER_117_1861
*16478 FILLER_117_1869
*16479 FILLER_117_1877
*16480 FILLER_117_1885
*16229 FILLER_117_189
*16481 FILLER_117_1893
*16482 FILLER_117_1901
*16483 FILLER_117_1909
*16484 FILLER_117_1917
*16485 FILLER_117_1919
*16486 FILLER_117_1921
*16487 FILLER_117_1929
*16488 FILLER_117_1937
*16489 FILLER_117_1945
*16490 FILLER_117_1953
*16491 FILLER_117_1961
*16492 FILLER_117_1969
*16230 FILLER_117_197
*16493 FILLER_117_1977
*16494 FILLER_117_1979
*16495 FILLER_117_1981
*16496 FILLER_117_1989
*16497 FILLER_117_1997
*16498 FILLER_117_2005
*16499 FILLER_117_2013
*16500 FILLER_117_2021
*16501 FILLER_117_2029
*16502 FILLER_117_2037
*16503 FILLER_117_2039
*16504 FILLER_117_2041
*16505 FILLER_117_2049
*16231 FILLER_117_205
*16506 FILLER_117_2057
*16507 FILLER_117_2065
*16508 FILLER_117_2073
*16509 FILLER_117_2081
*16510 FILLER_117_2089
*16511 FILLER_117_2097
*16512 FILLER_117_2099
*16513 FILLER_117_2101
*16514 FILLER_117_2109
*16515 FILLER_117_2117
*16516 FILLER_117_2125
*16517 FILLER_117_2129
*16232 FILLER_117_213
*16233 FILLER_117_221
*16234 FILLER_117_229
*16235 FILLER_117_237
*16236 FILLER_117_239
*16205 FILLER_117_24
*16237 FILLER_117_241
*16238 FILLER_117_249
*16239 FILLER_117_257
*16240 FILLER_117_265
*16241 FILLER_117_273
*16242 FILLER_117_281
*16243 FILLER_117_289
*16244 FILLER_117_297
*16245 FILLER_117_299
*16246 FILLER_117_301
*16247 FILLER_117_309
*16248 FILLER_117_317
*16206 FILLER_117_32
*16249 FILLER_117_325
*16250 FILLER_117_333
*16251 FILLER_117_341
*16252 FILLER_117_349
*16253 FILLER_117_357
*16254 FILLER_117_359
*16255 FILLER_117_361
*16256 FILLER_117_369
*16257 FILLER_117_377
*16258 FILLER_117_385
*16259 FILLER_117_393
*16207 FILLER_117_40
*16260 FILLER_117_401
*16261 FILLER_117_409
*16262 FILLER_117_417
*16263 FILLER_117_419
*16264 FILLER_117_421
*16265 FILLER_117_429
*16266 FILLER_117_437
*16267 FILLER_117_445
*16268 FILLER_117_453
*16269 FILLER_117_461
*16270 FILLER_117_469
*16271 FILLER_117_477
*16272 FILLER_117_479
*16208 FILLER_117_48
*16273 FILLER_117_481
*16274 FILLER_117_489
*16275 FILLER_117_497
*16276 FILLER_117_505
*16277 FILLER_117_513
*16278 FILLER_117_521
*16279 FILLER_117_529
*16280 FILLER_117_537
*16281 FILLER_117_539
*16282 FILLER_117_541
*16283 FILLER_117_549
*16284 FILLER_117_557
*16209 FILLER_117_56
*16285 FILLER_117_565
*16286 FILLER_117_573
*16287 FILLER_117_581
*16288 FILLER_117_589
*16289 FILLER_117_597
*16290 FILLER_117_599
*16291 FILLER_117_601
*16292 FILLER_117_609
*16210 FILLER_117_61
*16293 FILLER_117_632
*16294 FILLER_117_640
*16295 FILLER_117_648
*16296 FILLER_117_656
*16297 FILLER_117_661
*16298 FILLER_117_669
*16299 FILLER_117_677
*16300 FILLER_117_685
*16211 FILLER_117_69
*16301 FILLER_117_693
*16302 FILLER_117_701
*16303 FILLER_117_709
*16304 FILLER_117_717
*16305 FILLER_117_719
*16306 FILLER_117_721
*16307 FILLER_117_729
*16308 FILLER_117_737
*16309 FILLER_117_745
*16310 FILLER_117_753
*16311 FILLER_117_761
*16312 FILLER_117_769
*16212 FILLER_117_77
*16313 FILLER_117_777
*16314 FILLER_117_779
*16315 FILLER_117_781
*16316 FILLER_117_789
*16317 FILLER_117_797
*16203 FILLER_117_8
*16318 FILLER_117_805
*16319 FILLER_117_813
*16320 FILLER_117_821
*16321 FILLER_117_829
*16322 FILLER_117_837
*16323 FILLER_117_839
*16324 FILLER_117_841
*16325 FILLER_117_849
*16213 FILLER_117_85
*16326 FILLER_117_857
*16327 FILLER_117_865
*16328 FILLER_117_873
*16329 FILLER_117_881
*16330 FILLER_117_889
*16331 FILLER_117_897
*16332 FILLER_117_899
*16333 FILLER_117_901
*16334 FILLER_117_909
*16335 FILLER_117_917
*16336 FILLER_117_925
*16214 FILLER_117_93
*16337 FILLER_117_933
*16338 FILLER_117_941
*16339 FILLER_117_949
*16340 FILLER_117_957
*16341 FILLER_117_959
*16342 FILLER_117_961
*16343 FILLER_117_969
*16344 FILLER_117_977
*16345 FILLER_117_985
*16346 FILLER_117_993
*16518 FILLER_118_0
*16668 FILLER_118_1007
*16669 FILLER_118_1015
*16670 FILLER_118_1023
*16671 FILLER_118_1031
*16672 FILLER_118_1039
*16673 FILLER_118_1047
*16674 FILLER_118_1049
*16675 FILLER_118_1051
*16676 FILLER_118_1059
*16677 FILLER_118_1067
*16534 FILLER_118_107
*16678 FILLER_118_1075
*16679 FILLER_118_1083
*16680 FILLER_118_1091
*16681 FILLER_118_1099
*16682 FILLER_118_1107
*16683 FILLER_118_1109
*16684 FILLER_118_1111
*16685 FILLER_118_1119
*16686 FILLER_118_1127
*16687 FILLER_118_1135
*16688 FILLER_118_1143
*16535 FILLER_118_115
*16689 FILLER_118_1151
*16690 FILLER_118_1159
*16691 FILLER_118_1167
*16692 FILLER_118_1169
*16693 FILLER_118_1171
*16694 FILLER_118_1179
*16695 FILLER_118_1187
*16696 FILLER_118_1195
*16697 FILLER_118_1203
*16698 FILLER_118_1211
*16699 FILLER_118_1219
*16700 FILLER_118_1227
*16701 FILLER_118_1229
*16536 FILLER_118_123
*16702 FILLER_118_1231
*16703 FILLER_118_1239
*16704 FILLER_118_1247
*16705 FILLER_118_1255
*16706 FILLER_118_1263
*16707 FILLER_118_1271
*16708 FILLER_118_1279
*16709 FILLER_118_1287
*16710 FILLER_118_1289
*16711 FILLER_118_1291
*16712 FILLER_118_1299
*16713 FILLER_118_1307
*16537 FILLER_118_131
*16714 FILLER_118_1315
*16715 FILLER_118_1323
*16716 FILLER_118_1331
*16717 FILLER_118_1339
*16718 FILLER_118_1347
*16719 FILLER_118_1349
*16720 FILLER_118_1351
*16721 FILLER_118_1359
*16722 FILLER_118_1367
*16723 FILLER_118_1375
*16724 FILLER_118_1383
*16538 FILLER_118_139
*16725 FILLER_118_1391
*16726 FILLER_118_1399
*16727 FILLER_118_1407
*16728 FILLER_118_1409
*16729 FILLER_118_1411
*16730 FILLER_118_1419
*16731 FILLER_118_1427
*16732 FILLER_118_1435
*16733 FILLER_118_1443
*16734 FILLER_118_1451
*16735 FILLER_118_1459
*16736 FILLER_118_1467
*16737 FILLER_118_1469
*16539 FILLER_118_147
*16738 FILLER_118_1471
*16739 FILLER_118_1479
*16740 FILLER_118_1487
*16540 FILLER_118_149
*16741 FILLER_118_1495
*16742 FILLER_118_1503
*16541 FILLER_118_151
*16743 FILLER_118_1511
*16744 FILLER_118_1519
*16745 FILLER_118_1527
*16746 FILLER_118_1529
*16747 FILLER_118_1531
*16748 FILLER_118_1539
*16749 FILLER_118_1547
*16750 FILLER_118_1555
*16751 FILLER_118_1563
*16752 FILLER_118_1571
*16753 FILLER_118_1579
*16754 FILLER_118_1587
*16755 FILLER_118_1589
*16542 FILLER_118_159
*16756 FILLER_118_1591
*16757 FILLER_118_1599
*16520 FILLER_118_16
*16758 FILLER_118_1607
*16759 FILLER_118_1615
*16760 FILLER_118_1623
*16761 FILLER_118_1631
*16762 FILLER_118_1639
*16763 FILLER_118_1647
*16764 FILLER_118_1649
*16765 FILLER_118_1651
*16766 FILLER_118_1659
*16767 FILLER_118_1667
*16543 FILLER_118_167
*16768 FILLER_118_1675
*16769 FILLER_118_1683
*16770 FILLER_118_1691
*16771 FILLER_118_1699
*16772 FILLER_118_1707
*16773 FILLER_118_1709
*16774 FILLER_118_1711
*16775 FILLER_118_1719
*16776 FILLER_118_1727
*16777 FILLER_118_1735
*16778 FILLER_118_1743
*16544 FILLER_118_175
*16779 FILLER_118_1751
*16780 FILLER_118_1759
*16781 FILLER_118_1767
*16782 FILLER_118_1769
*16783 FILLER_118_1771
*16784 FILLER_118_1779
*16785 FILLER_118_1787
*16786 FILLER_118_1795
*16787 FILLER_118_1803
*16788 FILLER_118_1811
*16789 FILLER_118_1819
*16790 FILLER_118_1827
*16791 FILLER_118_1829
*16545 FILLER_118_183
*16792 FILLER_118_1831
*16793 FILLER_118_1839
*16794 FILLER_118_1847
*16795 FILLER_118_1855
*16796 FILLER_118_1863
*16797 FILLER_118_1871
*16798 FILLER_118_1879
*16799 FILLER_118_1887
*16800 FILLER_118_1889
*16801 FILLER_118_1891
*16802 FILLER_118_1899
*16803 FILLER_118_1907
*16546 FILLER_118_191
*16804 FILLER_118_1915
*16805 FILLER_118_1923
*16806 FILLER_118_1931
*16807 FILLER_118_1939
*16808 FILLER_118_1947
*16809 FILLER_118_1949
*16810 FILLER_118_1951
*16811 FILLER_118_1959
*16812 FILLER_118_1967
*16813 FILLER_118_1975
*16814 FILLER_118_1983
*16547 FILLER_118_199
*16815 FILLER_118_1991
*16816 FILLER_118_1999
*16817 FILLER_118_2007
*16818 FILLER_118_2009
*16819 FILLER_118_2011
*16820 FILLER_118_2019
*16821 FILLER_118_2027
*16822 FILLER_118_2035
*16823 FILLER_118_2043
*16824 FILLER_118_2051
*16825 FILLER_118_2059
*16826 FILLER_118_2067
*16827 FILLER_118_2069
*16548 FILLER_118_207
*16828 FILLER_118_2071
*16829 FILLER_118_2079
*16830 FILLER_118_2087
*16549 FILLER_118_209
*16831 FILLER_118_2095
*16832 FILLER_118_2103
*16550 FILLER_118_211
*16833 FILLER_118_2111
*16834 FILLER_118_2119
*16835 FILLER_118_2127
*16836 FILLER_118_2129
*16551 FILLER_118_219
*16552 FILLER_118_227
*16553 FILLER_118_235
*16521 FILLER_118_24
*16554 FILLER_118_243
*16555 FILLER_118_251
*16556 FILLER_118_259
*16557 FILLER_118_267
*16558 FILLER_118_269
*16559 FILLER_118_271
*16560 FILLER_118_279
*16522 FILLER_118_28
*16561 FILLER_118_287
*16562 FILLER_118_295
*16563 FILLER_118_303
*16523 FILLER_118_31
*16564 FILLER_118_311
*16565 FILLER_118_319
*16566 FILLER_118_327
*16567 FILLER_118_329
*16568 FILLER_118_331
*16569 FILLER_118_339
*16570 FILLER_118_347
*16571 FILLER_118_355
*16572 FILLER_118_363
*16573 FILLER_118_371
*16574 FILLER_118_379
*16575 FILLER_118_387
*16576 FILLER_118_389
*16524 FILLER_118_39
*16577 FILLER_118_391
*16578 FILLER_118_399
*16579 FILLER_118_407
*16580 FILLER_118_415
*16581 FILLER_118_423
*16582 FILLER_118_431
*16583 FILLER_118_439
*16584 FILLER_118_447
*16585 FILLER_118_449
*16586 FILLER_118_451
*16587 FILLER_118_459
*16588 FILLER_118_467
*16525 FILLER_118_47
*16589 FILLER_118_475
*16590 FILLER_118_483
*16591 FILLER_118_491
*16592 FILLER_118_499
*16593 FILLER_118_507
*16594 FILLER_118_509
*16595 FILLER_118_511
*16596 FILLER_118_519
*16597 FILLER_118_527
*16598 FILLER_118_535
*16599 FILLER_118_543
*16526 FILLER_118_55
*16600 FILLER_118_551
*16601 FILLER_118_559
*16602 FILLER_118_567
*16603 FILLER_118_569
*16604 FILLER_118_571
*16605 FILLER_118_579
*16606 FILLER_118_587
*16607 FILLER_118_595
*16608 FILLER_118_603
*16609 FILLER_118_611
*16610 FILLER_118_619
*16611 FILLER_118_629
*16527 FILLER_118_63
*16612 FILLER_118_631
*16613 FILLER_118_639
*16614 FILLER_118_647
*16615 FILLER_118_655
*16616 FILLER_118_663
*16617 FILLER_118_671
*16618 FILLER_118_679
*16619 FILLER_118_687
*16620 FILLER_118_689
*16621 FILLER_118_691
*16622 FILLER_118_699
*16623 FILLER_118_707
*16528 FILLER_118_71
*16624 FILLER_118_715
*16625 FILLER_118_723
*16626 FILLER_118_731
*16627 FILLER_118_739
*16628 FILLER_118_747
*16629 FILLER_118_749
*16630 FILLER_118_751
*16631 FILLER_118_759
*16632 FILLER_118_767
*16633 FILLER_118_775
*16634 FILLER_118_783
*16529 FILLER_118_79
*16635 FILLER_118_791
*16636 FILLER_118_799
*16519 FILLER_118_8
*16637 FILLER_118_807
*16638 FILLER_118_809
*16639 FILLER_118_811
*16640 FILLER_118_819
*16641 FILLER_118_827
*16642 FILLER_118_835
*16643 FILLER_118_843
*16644 FILLER_118_851
*16645 FILLER_118_859
*16646 FILLER_118_867
*16647 FILLER_118_869
*16530 FILLER_118_87
*16648 FILLER_118_871
*16649 FILLER_118_879
*16650 FILLER_118_887
*16531 FILLER_118_89
*16651 FILLER_118_895
*16652 FILLER_118_903
*16532 FILLER_118_91
*16653 FILLER_118_911
*16654 FILLER_118_919
*16655 FILLER_118_927
*16656 FILLER_118_929
*16657 FILLER_118_931
*16658 FILLER_118_939
*16659 FILLER_118_947
*16660 FILLER_118_955
*16661 FILLER_118_963
*16662 FILLER_118_971
*16663 FILLER_118_979
*16664 FILLER_118_987
*16665 FILLER_118_989
*16533 FILLER_118_99
*16666 FILLER_118_991
*16667 FILLER_118_999
*16837 FILLER_119_0
*16984 FILLER_119_1001
*16985 FILLER_119_1009
*16850 FILLER_119_101
*16986 FILLER_119_1017
*16987 FILLER_119_1019
*16988 FILLER_119_1021
*16989 FILLER_119_1029
*16990 FILLER_119_1037
*16991 FILLER_119_1045
*16992 FILLER_119_1053
*16993 FILLER_119_1061
*16994 FILLER_119_1069
*16995 FILLER_119_1077
*16996 FILLER_119_1079
*16997 FILLER_119_1081
*16998 FILLER_119_1089
*16851 FILLER_119_109
*16999 FILLER_119_1097
*17000 FILLER_119_1105
*17001 FILLER_119_1113
*17002 FILLER_119_1121
*17003 FILLER_119_1129
*17004 FILLER_119_1137
*17005 FILLER_119_1139
*17006 FILLER_119_1141
*17007 FILLER_119_1149
*17008 FILLER_119_1157
*17009 FILLER_119_1165
*16852 FILLER_119_117
*17010 FILLER_119_1173
*17011 FILLER_119_1181
*17012 FILLER_119_1189
*16853 FILLER_119_119
*17013 FILLER_119_1197
*17014 FILLER_119_1199
*17015 FILLER_119_1201
*17016 FILLER_119_1209
*16854 FILLER_119_121
*17017 FILLER_119_1217
*17018 FILLER_119_1225
*17019 FILLER_119_1233
*17020 FILLER_119_1241
*17021 FILLER_119_1249
*17022 FILLER_119_1257
*17023 FILLER_119_1259
*17024 FILLER_119_1261
*17025 FILLER_119_1269
*17026 FILLER_119_1277
*17027 FILLER_119_1285
*16855 FILLER_119_129
*17028 FILLER_119_1293
*17029 FILLER_119_1301
*17030 FILLER_119_1309
*17031 FILLER_119_1317
*17032 FILLER_119_1319
*17033 FILLER_119_1321
*17034 FILLER_119_1329
*17035 FILLER_119_1337
*17036 FILLER_119_1345
*17037 FILLER_119_1353
*17038 FILLER_119_1361
*17039 FILLER_119_1369
*16856 FILLER_119_137
*17040 FILLER_119_1377
*17041 FILLER_119_1379
*17042 FILLER_119_1381
*17043 FILLER_119_1389
*17044 FILLER_119_1397
*17045 FILLER_119_1405
*17046 FILLER_119_1413
*17047 FILLER_119_1421
*17048 FILLER_119_1429
*17049 FILLER_119_1437
*17050 FILLER_119_1439
*17051 FILLER_119_1441
*17052 FILLER_119_1449
*16857 FILLER_119_145
*17053 FILLER_119_1457
*17054 FILLER_119_1465
*17055 FILLER_119_1473
*17056 FILLER_119_1481
*17057 FILLER_119_1489
*17058 FILLER_119_1497
*17059 FILLER_119_1499
*17060 FILLER_119_1501
*17061 FILLER_119_1509
*17062 FILLER_119_1517
*17063 FILLER_119_1525
*16858 FILLER_119_153
*17064 FILLER_119_1533
*17065 FILLER_119_1541
*17066 FILLER_119_1549
*17067 FILLER_119_1557
*17068 FILLER_119_1559
*17069 FILLER_119_1561
*17070 FILLER_119_1569
*17071 FILLER_119_1577
*17072 FILLER_119_1585
*17073 FILLER_119_1593
*16839 FILLER_119_16
*17074 FILLER_119_1601
*17075 FILLER_119_1609
*16859 FILLER_119_161
*17076 FILLER_119_1617
*17077 FILLER_119_1619
*17078 FILLER_119_1621
*17079 FILLER_119_1629
*17080 FILLER_119_1637
*17081 FILLER_119_1645
*17082 FILLER_119_1653
*17083 FILLER_119_1661
*17084 FILLER_119_1669
*17085 FILLER_119_1677
*17086 FILLER_119_1679
*17087 FILLER_119_1681
*17088 FILLER_119_1689
*16860 FILLER_119_169
*17089 FILLER_119_1697
*17090 FILLER_119_1705
*17091 FILLER_119_1713
*17092 FILLER_119_1721
*17093 FILLER_119_1729
*17094 FILLER_119_1737
*17095 FILLER_119_1739
*17096 FILLER_119_1741
*17097 FILLER_119_1749
*17098 FILLER_119_1757
*17099 FILLER_119_1765
*16861 FILLER_119_177
*17100 FILLER_119_1773
*17101 FILLER_119_1781
*17102 FILLER_119_1789
*16862 FILLER_119_179
*17103 FILLER_119_1797
*17104 FILLER_119_1799
*17105 FILLER_119_1801
*17106 FILLER_119_1809
*16863 FILLER_119_181
*17107 FILLER_119_1817
*17108 FILLER_119_1825
*17109 FILLER_119_1833
*17110 FILLER_119_1841
*17111 FILLER_119_1849
*17112 FILLER_119_1857
*17113 FILLER_119_1859
*17114 FILLER_119_1861
*17115 FILLER_119_1869
*17116 FILLER_119_1877
*17117 FILLER_119_1885
*16864 FILLER_119_189
*17118 FILLER_119_1893
*17119 FILLER_119_1901
*17120 FILLER_119_1909
*17121 FILLER_119_1917
*17122 FILLER_119_1919
*17123 FILLER_119_1921
*17124 FILLER_119_1929
*17125 FILLER_119_1937
*17126 FILLER_119_1945
*17127 FILLER_119_1953
*17128 FILLER_119_1961
*17129 FILLER_119_1969
*16865 FILLER_119_197
*17130 FILLER_119_1977
*17131 FILLER_119_1979
*17132 FILLER_119_1981
*17133 FILLER_119_1989
*17134 FILLER_119_1997
*17135 FILLER_119_2005
*17136 FILLER_119_2013
*17137 FILLER_119_2021
*17138 FILLER_119_2029
*17139 FILLER_119_2037
*17140 FILLER_119_2039
*17141 FILLER_119_2041
*17142 FILLER_119_2049
*16866 FILLER_119_205
*17143 FILLER_119_2057
*17144 FILLER_119_2065
*17145 FILLER_119_2073
*17146 FILLER_119_2081
*17147 FILLER_119_2089
*17148 FILLER_119_2097
*17149 FILLER_119_2099
*17150 FILLER_119_2101
*17151 FILLER_119_2109
*17152 FILLER_119_2117
*17153 FILLER_119_2125
*17154 FILLER_119_2129
*16867 FILLER_119_213
*16868 FILLER_119_221
*16869 FILLER_119_229
*16870 FILLER_119_237
*16871 FILLER_119_239
*16840 FILLER_119_24
*16872 FILLER_119_241
*16873 FILLER_119_249
*16874 FILLER_119_257
*16875 FILLER_119_265
*16876 FILLER_119_273
*16877 FILLER_119_281
*16878 FILLER_119_289
*16879 FILLER_119_297
*16880 FILLER_119_299
*16881 FILLER_119_301
*16882 FILLER_119_309
*16883 FILLER_119_317
*16841 FILLER_119_32
*16884 FILLER_119_325
*16885 FILLER_119_333
*16886 FILLER_119_341
*16887 FILLER_119_349
*16888 FILLER_119_357
*16889 FILLER_119_359
*16890 FILLER_119_361
*16891 FILLER_119_369
*16892 FILLER_119_377
*16893 FILLER_119_385
*16894 FILLER_119_393
*16842 FILLER_119_40
*16895 FILLER_119_401
*16896 FILLER_119_409
*16897 FILLER_119_417
*16898 FILLER_119_419
*16899 FILLER_119_421
*16900 FILLER_119_429
*16901 FILLER_119_437
*16902 FILLER_119_445
*16903 FILLER_119_453
*16904 FILLER_119_461
*16905 FILLER_119_469
*16906 FILLER_119_477
*16907 FILLER_119_479
*16843 FILLER_119_48
*16908 FILLER_119_481
*16909 FILLER_119_489
*16910 FILLER_119_497
*16911 FILLER_119_505
*16912 FILLER_119_513
*16913 FILLER_119_521
*16914 FILLER_119_529
*16915 FILLER_119_537
*16916 FILLER_119_539
*16917 FILLER_119_541
*16918 FILLER_119_549
*16919 FILLER_119_557
*16844 FILLER_119_56
*16920 FILLER_119_565
*16921 FILLER_119_573
*16922 FILLER_119_581
*16923 FILLER_119_589
*16924 FILLER_119_597
*16925 FILLER_119_599
*16926 FILLER_119_601
*16927 FILLER_119_609
*16845 FILLER_119_61
*16928 FILLER_119_613
*16929 FILLER_119_615
*16930 FILLER_119_638
*16931 FILLER_119_646
*16932 FILLER_119_654
*16933 FILLER_119_658
*16934 FILLER_119_661
*16935 FILLER_119_669
*16936 FILLER_119_677
*16937 FILLER_119_685
*16846 FILLER_119_69
*16938 FILLER_119_693
*16939 FILLER_119_701
*16940 FILLER_119_709
*16941 FILLER_119_717
*16942 FILLER_119_719
*16943 FILLER_119_721
*16944 FILLER_119_729
*16945 FILLER_119_737
*16946 FILLER_119_745
*16947 FILLER_119_753
*16948 FILLER_119_761
*16949 FILLER_119_769
*16847 FILLER_119_77
*16950 FILLER_119_777
*16951 FILLER_119_779
*16952 FILLER_119_781
*16953 FILLER_119_789
*16954 FILLER_119_797
*16838 FILLER_119_8
*16955 FILLER_119_805
*16956 FILLER_119_813
*16957 FILLER_119_821
*16958 FILLER_119_829
*16959 FILLER_119_837
*16960 FILLER_119_839
*16961 FILLER_119_841
*16962 FILLER_119_849
*16848 FILLER_119_85
*16963 FILLER_119_857
*16964 FILLER_119_865
*16965 FILLER_119_873
*16966 FILLER_119_881
*16967 FILLER_119_889
*16968 FILLER_119_897
*16969 FILLER_119_899
*16970 FILLER_119_901
*16971 FILLER_119_909
*16972 FILLER_119_917
*16973 FILLER_119_925
*16849 FILLER_119_93
*16974 FILLER_119_933
*16975 FILLER_119_941
*16976 FILLER_119_949
*16977 FILLER_119_957
*16978 FILLER_119_959
*16979 FILLER_119_961
*16980 FILLER_119_969
*16981 FILLER_119_977
*16982 FILLER_119_985
*16983 FILLER_119_993
*6083 FILLER_11_0
*6090 FILLER_11_1549
*6091 FILLER_11_1557
*6092 FILLER_11_1565
*6093 FILLER_11_1573
*6094 FILLER_11_1581
*6095 FILLER_11_1589
*6096 FILLER_11_1597
*6085 FILLER_11_16
*6097 FILLER_11_1605
*6098 FILLER_11_1610
*6099 FILLER_11_1618
*6100 FILLER_11_1626
*6101 FILLER_11_1634
*6102 FILLER_11_1642
*6103 FILLER_11_1650
*6104 FILLER_11_1658
*6105 FILLER_11_1666
*6106 FILLER_11_1668
*6107 FILLER_11_1670
*6108 FILLER_11_1678
*6109 FILLER_11_1686
*6110 FILLER_11_1694
*6111 FILLER_11_1702
*6112 FILLER_11_1710
*6113 FILLER_11_1718
*6114 FILLER_11_1726
*6115 FILLER_11_1728
*6116 FILLER_11_1730
*6117 FILLER_11_1738
*6118 FILLER_11_1746
*6119 FILLER_11_1754
*6120 FILLER_11_1762
*6121 FILLER_11_1770
*6122 FILLER_11_1778
*6123 FILLER_11_1786
*6124 FILLER_11_1788
*6125 FILLER_11_1790
*6126 FILLER_11_1798
*6127 FILLER_11_1806
*6128 FILLER_11_1814
*6129 FILLER_11_1822
*6130 FILLER_11_1830
*6131 FILLER_11_1838
*6132 FILLER_11_1846
*6133 FILLER_11_1848
*6134 FILLER_11_1850
*6135 FILLER_11_1858
*6136 FILLER_11_1866
*6137 FILLER_11_1874
*6138 FILLER_11_1882
*6139 FILLER_11_1890
*6140 FILLER_11_1898
*6141 FILLER_11_1906
*6142 FILLER_11_1908
*6143 FILLER_11_1910
*6144 FILLER_11_1918
*6145 FILLER_11_1926
*6146 FILLER_11_1934
*6147 FILLER_11_1942
*6148 FILLER_11_1950
*6149 FILLER_11_1958
*6150 FILLER_11_1966
*6151 FILLER_11_1968
*6152 FILLER_11_1970
*6153 FILLER_11_1978
*6154 FILLER_11_1986
*6155 FILLER_11_1994
*6156 FILLER_11_2002
*6157 FILLER_11_2010
*6158 FILLER_11_2018
*6159 FILLER_11_2026
*6160 FILLER_11_2028
*6161 FILLER_11_2030
*6162 FILLER_11_2038
*6163 FILLER_11_2046
*6164 FILLER_11_2054
*6165 FILLER_11_2062
*6166 FILLER_11_2070
*6167 FILLER_11_2078
*6168 FILLER_11_2086
*6169 FILLER_11_2088
*6170 FILLER_11_2090
*6171 FILLER_11_2098
*6172 FILLER_11_2106
*6173 FILLER_11_2114
*6174 FILLER_11_2122
*6086 FILLER_11_24
*6087 FILLER_11_32
*6088 FILLER_11_36
*6089 FILLER_11_38
*6084 FILLER_11_8
*17155 FILLER_120_0
*17306 FILLER_120_1007
*17307 FILLER_120_1015
*17308 FILLER_120_1023
*17309 FILLER_120_1031
*17310 FILLER_120_1039
*17311 FILLER_120_1047
*17312 FILLER_120_1049
*17313 FILLER_120_1051
*17314 FILLER_120_1059
*17315 FILLER_120_1067
*17171 FILLER_120_107
*17316 FILLER_120_1075
*17317 FILLER_120_1083
*17318 FILLER_120_1091
*17319 FILLER_120_1099
*17320 FILLER_120_1107
*17321 FILLER_120_1109
*17322 FILLER_120_1111
*17323 FILLER_120_1119
*17324 FILLER_120_1127
*17325 FILLER_120_1135
*17326 FILLER_120_1143
*17172 FILLER_120_115
*17327 FILLER_120_1151
*17328 FILLER_120_1159
*17329 FILLER_120_1167
*17330 FILLER_120_1169
*17331 FILLER_120_1171
*17332 FILLER_120_1179
*17333 FILLER_120_1187
*17334 FILLER_120_1195
*17335 FILLER_120_1203
*17336 FILLER_120_1211
*17337 FILLER_120_1219
*17338 FILLER_120_1227
*17339 FILLER_120_1229
*17173 FILLER_120_123
*17340 FILLER_120_1231
*17341 FILLER_120_1239
*17342 FILLER_120_1247
*17343 FILLER_120_1255
*17344 FILLER_120_1263
*17345 FILLER_120_1271
*17346 FILLER_120_1279
*17347 FILLER_120_1287
*17348 FILLER_120_1289
*17349 FILLER_120_1291
*17350 FILLER_120_1299
*17351 FILLER_120_1307
*17174 FILLER_120_131
*17352 FILLER_120_1315
*17353 FILLER_120_1323
*17354 FILLER_120_1331
*17355 FILLER_120_1339
*17356 FILLER_120_1347
*17357 FILLER_120_1349
*17358 FILLER_120_1351
*17359 FILLER_120_1359
*17360 FILLER_120_1367
*17361 FILLER_120_1375
*17362 FILLER_120_1383
*17175 FILLER_120_139
*17363 FILLER_120_1391
*17364 FILLER_120_1399
*17365 FILLER_120_1407
*17366 FILLER_120_1409
*17367 FILLER_120_1411
*17368 FILLER_120_1419
*17369 FILLER_120_1427
*17370 FILLER_120_1435
*17371 FILLER_120_1443
*17372 FILLER_120_1451
*17373 FILLER_120_1459
*17374 FILLER_120_1467
*17375 FILLER_120_1469
*17176 FILLER_120_147
*17376 FILLER_120_1471
*17377 FILLER_120_1479
*17378 FILLER_120_1487
*17177 FILLER_120_149
*17379 FILLER_120_1495
*17380 FILLER_120_1503
*17178 FILLER_120_151
*17381 FILLER_120_1511
*17382 FILLER_120_1519
*17383 FILLER_120_1527
*17384 FILLER_120_1529
*17385 FILLER_120_1531
*17386 FILLER_120_1539
*17387 FILLER_120_1547
*17388 FILLER_120_1555
*17389 FILLER_120_1563
*17390 FILLER_120_1571
*17391 FILLER_120_1579
*17392 FILLER_120_1587
*17393 FILLER_120_1589
*17179 FILLER_120_159
*17394 FILLER_120_1591
*17395 FILLER_120_1599
*17157 FILLER_120_16
*17396 FILLER_120_1607
*17397 FILLER_120_1615
*17398 FILLER_120_1623
*17399 FILLER_120_1631
*17400 FILLER_120_1639
*17401 FILLER_120_1647
*17402 FILLER_120_1649
*17403 FILLER_120_1651
*17404 FILLER_120_1659
*17405 FILLER_120_1667
*17180 FILLER_120_167
*17406 FILLER_120_1675
*17407 FILLER_120_1683
*17408 FILLER_120_1691
*17409 FILLER_120_1699
*17410 FILLER_120_1707
*17411 FILLER_120_1709
*17412 FILLER_120_1711
*17413 FILLER_120_1719
*17414 FILLER_120_1727
*17415 FILLER_120_1735
*17416 FILLER_120_1743
*17181 FILLER_120_175
*17417 FILLER_120_1751
*17418 FILLER_120_1759
*17419 FILLER_120_1767
*17420 FILLER_120_1769
*17421 FILLER_120_1771
*17422 FILLER_120_1779
*17423 FILLER_120_1787
*17424 FILLER_120_1795
*17425 FILLER_120_1803
*17426 FILLER_120_1811
*17427 FILLER_120_1819
*17428 FILLER_120_1827
*17429 FILLER_120_1829
*17182 FILLER_120_183
*17430 FILLER_120_1831
*17431 FILLER_120_1839
*17432 FILLER_120_1847
*17433 FILLER_120_1855
*17434 FILLER_120_1863
*17435 FILLER_120_1871
*17436 FILLER_120_1879
*17437 FILLER_120_1887
*17438 FILLER_120_1889
*17439 FILLER_120_1891
*17440 FILLER_120_1899
*17441 FILLER_120_1907
*17183 FILLER_120_191
*17442 FILLER_120_1915
*17443 FILLER_120_1923
*17444 FILLER_120_1931
*17445 FILLER_120_1939
*17446 FILLER_120_1947
*17447 FILLER_120_1949
*17448 FILLER_120_1951
*17449 FILLER_120_1959
*17450 FILLER_120_1967
*17451 FILLER_120_1975
*17452 FILLER_120_1983
*17184 FILLER_120_199
*17453 FILLER_120_1991
*17454 FILLER_120_1999
*17455 FILLER_120_2007
*17456 FILLER_120_2009
*17457 FILLER_120_2011
*17458 FILLER_120_2019
*17459 FILLER_120_2027
*17460 FILLER_120_2035
*17461 FILLER_120_2043
*17462 FILLER_120_2051
*17463 FILLER_120_2059
*17464 FILLER_120_2067
*17465 FILLER_120_2069
*17185 FILLER_120_207
*17466 FILLER_120_2071
*17467 FILLER_120_2079
*17468 FILLER_120_2087
*17186 FILLER_120_209
*17469 FILLER_120_2095
*17470 FILLER_120_2103
*17187 FILLER_120_211
*17471 FILLER_120_2111
*17472 FILLER_120_2119
*17473 FILLER_120_2127
*17474 FILLER_120_2129
*17188 FILLER_120_219
*17189 FILLER_120_227
*17190 FILLER_120_235
*17158 FILLER_120_24
*17191 FILLER_120_243
*17192 FILLER_120_251
*17193 FILLER_120_259
*17194 FILLER_120_267
*17195 FILLER_120_269
*17196 FILLER_120_271
*17197 FILLER_120_279
*17159 FILLER_120_28
*17198 FILLER_120_287
*17199 FILLER_120_295
*17200 FILLER_120_303
*17160 FILLER_120_31
*17201 FILLER_120_311
*17202 FILLER_120_319
*17203 FILLER_120_327
*17204 FILLER_120_329
*17205 FILLER_120_331
*17206 FILLER_120_339
*17207 FILLER_120_347
*17208 FILLER_120_355
*17209 FILLER_120_363
*17210 FILLER_120_371
*17211 FILLER_120_379
*17212 FILLER_120_387
*17213 FILLER_120_389
*17161 FILLER_120_39
*17214 FILLER_120_391
*17215 FILLER_120_399
*17216 FILLER_120_407
*17217 FILLER_120_415
*17218 FILLER_120_423
*17219 FILLER_120_431
*17220 FILLER_120_439
*17221 FILLER_120_447
*17222 FILLER_120_449
*17223 FILLER_120_451
*17224 FILLER_120_459
*17225 FILLER_120_467
*17162 FILLER_120_47
*17226 FILLER_120_475
*17227 FILLER_120_483
*17228 FILLER_120_491
*17229 FILLER_120_499
*17230 FILLER_120_507
*17231 FILLER_120_509
*17232 FILLER_120_511
*17233 FILLER_120_519
*17234 FILLER_120_527
*17235 FILLER_120_535
*17236 FILLER_120_543
*17163 FILLER_120_55
*17237 FILLER_120_551
*17238 FILLER_120_559
*17239 FILLER_120_567
*17240 FILLER_120_569
*17241 FILLER_120_571
*17242 FILLER_120_579
*17243 FILLER_120_587
*17244 FILLER_120_595
*17245 FILLER_120_603
*17246 FILLER_120_611
*17247 FILLER_120_619
*17248 FILLER_120_627
*17249 FILLER_120_629
*17164 FILLER_120_63
*17250 FILLER_120_631
*17251 FILLER_120_639
*17252 FILLER_120_647
*17253 FILLER_120_655
*17254 FILLER_120_663
*17255 FILLER_120_671
*17256 FILLER_120_679
*17257 FILLER_120_687
*17258 FILLER_120_689
*17259 FILLER_120_691
*17260 FILLER_120_699
*17261 FILLER_120_707
*17165 FILLER_120_71
*17262 FILLER_120_715
*17263 FILLER_120_723
*17264 FILLER_120_731
*17265 FILLER_120_739
*17266 FILLER_120_747
*17267 FILLER_120_749
*17268 FILLER_120_751
*17269 FILLER_120_759
*17270 FILLER_120_767
*17271 FILLER_120_775
*17272 FILLER_120_783
*17166 FILLER_120_79
*17273 FILLER_120_791
*17274 FILLER_120_799
*17156 FILLER_120_8
*17275 FILLER_120_807
*17276 FILLER_120_809
*17277 FILLER_120_811
*17278 FILLER_120_819
*17279 FILLER_120_827
*17280 FILLER_120_835
*17281 FILLER_120_843
*17282 FILLER_120_851
*17283 FILLER_120_859
*17284 FILLER_120_867
*17285 FILLER_120_869
*17167 FILLER_120_87
*17286 FILLER_120_871
*17287 FILLER_120_879
*17288 FILLER_120_887
*17168 FILLER_120_89
*17289 FILLER_120_895
*17290 FILLER_120_903
*17169 FILLER_120_91
*17291 FILLER_120_911
*17292 FILLER_120_919
*17293 FILLER_120_927
*17294 FILLER_120_929
*17295 FILLER_120_931
*17296 FILLER_120_939
*17297 FILLER_120_947
*17298 FILLER_120_955
*17299 FILLER_120_963
*17300 FILLER_120_971
*17301 FILLER_120_979
*17302 FILLER_120_987
*17303 FILLER_120_989
*17170 FILLER_120_99
*17304 FILLER_120_991
*17305 FILLER_120_999
*17475 FILLER_121_0
*17623 FILLER_121_1001
*17624 FILLER_121_1009
*17488 FILLER_121_101
*17625 FILLER_121_1017
*17626 FILLER_121_1019
*17627 FILLER_121_1021
*17628 FILLER_121_1029
*17629 FILLER_121_1037
*17630 FILLER_121_1045
*17631 FILLER_121_1053
*17632 FILLER_121_1061
*17633 FILLER_121_1069
*17634 FILLER_121_1077
*17635 FILLER_121_1079
*17636 FILLER_121_1081
*17637 FILLER_121_1089
*17489 FILLER_121_109
*17638 FILLER_121_1097
*17639 FILLER_121_1105
*17640 FILLER_121_1113
*17641 FILLER_121_1121
*17642 FILLER_121_1129
*17643 FILLER_121_1137
*17644 FILLER_121_1139
*17645 FILLER_121_1141
*17646 FILLER_121_1149
*17647 FILLER_121_1157
*17648 FILLER_121_1165
*17490 FILLER_121_117
*17649 FILLER_121_1173
*17650 FILLER_121_1181
*17651 FILLER_121_1189
*17491 FILLER_121_119
*17652 FILLER_121_1197
*17653 FILLER_121_1199
*17654 FILLER_121_1201
*17655 FILLER_121_1209
*17492 FILLER_121_121
*17656 FILLER_121_1217
*17657 FILLER_121_1225
*17658 FILLER_121_1233
*17659 FILLER_121_1241
*17660 FILLER_121_1249
*17661 FILLER_121_1257
*17662 FILLER_121_1259
*17663 FILLER_121_1261
*17664 FILLER_121_1269
*17665 FILLER_121_1277
*17666 FILLER_121_1285
*17493 FILLER_121_129
*17667 FILLER_121_1293
*17668 FILLER_121_1301
*17669 FILLER_121_1309
*17670 FILLER_121_1317
*17671 FILLER_121_1319
*17672 FILLER_121_1321
*17673 FILLER_121_1329
*17674 FILLER_121_1337
*17675 FILLER_121_1345
*17676 FILLER_121_1353
*17677 FILLER_121_1361
*17678 FILLER_121_1369
*17494 FILLER_121_137
*17679 FILLER_121_1377
*17680 FILLER_121_1379
*17681 FILLER_121_1381
*17682 FILLER_121_1389
*17683 FILLER_121_1397
*17684 FILLER_121_1405
*17685 FILLER_121_1413
*17686 FILLER_121_1421
*17687 FILLER_121_1429
*17688 FILLER_121_1437
*17689 FILLER_121_1439
*17690 FILLER_121_1441
*17691 FILLER_121_1449
*17495 FILLER_121_145
*17692 FILLER_121_1457
*17693 FILLER_121_1465
*17694 FILLER_121_1473
*17695 FILLER_121_1481
*17696 FILLER_121_1489
*17697 FILLER_121_1497
*17698 FILLER_121_1499
*17699 FILLER_121_1501
*17700 FILLER_121_1509
*17701 FILLER_121_1517
*17702 FILLER_121_1525
*17496 FILLER_121_153
*17703 FILLER_121_1533
*17704 FILLER_121_1541
*17705 FILLER_121_1549
*17706 FILLER_121_1557
*17707 FILLER_121_1559
*17708 FILLER_121_1561
*17709 FILLER_121_1569
*17710 FILLER_121_1577
*17711 FILLER_121_1585
*17712 FILLER_121_1593
*17477 FILLER_121_16
*17713 FILLER_121_1601
*17714 FILLER_121_1609
*17497 FILLER_121_161
*17715 FILLER_121_1617
*17716 FILLER_121_1619
*17717 FILLER_121_1621
*17718 FILLER_121_1629
*17719 FILLER_121_1637
*17720 FILLER_121_1645
*17721 FILLER_121_1653
*17722 FILLER_121_1661
*17723 FILLER_121_1669
*17724 FILLER_121_1677
*17725 FILLER_121_1679
*17726 FILLER_121_1681
*17727 FILLER_121_1689
*17498 FILLER_121_169
*17728 FILLER_121_1697
*17729 FILLER_121_1705
*17730 FILLER_121_1713
*17731 FILLER_121_1721
*17732 FILLER_121_1729
*17733 FILLER_121_1737
*17734 FILLER_121_1739
*17735 FILLER_121_1741
*17736 FILLER_121_1749
*17737 FILLER_121_1757
*17738 FILLER_121_1765
*17499 FILLER_121_177
*17739 FILLER_121_1773
*17740 FILLER_121_1781
*17741 FILLER_121_1789
*17500 FILLER_121_179
*17742 FILLER_121_1797
*17743 FILLER_121_1799
*17744 FILLER_121_1801
*17745 FILLER_121_1809
*17501 FILLER_121_181
*17746 FILLER_121_1817
*17747 FILLER_121_1825
*17748 FILLER_121_1833
*17749 FILLER_121_1841
*17750 FILLER_121_1849
*17751 FILLER_121_1857
*17752 FILLER_121_1859
*17753 FILLER_121_1861
*17754 FILLER_121_1869
*17755 FILLER_121_1877
*17756 FILLER_121_1885
*17502 FILLER_121_189
*17757 FILLER_121_1893
*17758 FILLER_121_1901
*17759 FILLER_121_1909
*17760 FILLER_121_1917
*17761 FILLER_121_1919
*17762 FILLER_121_1921
*17763 FILLER_121_1929
*17764 FILLER_121_1937
*17765 FILLER_121_1945
*17766 FILLER_121_1953
*17767 FILLER_121_1961
*17768 FILLER_121_1969
*17503 FILLER_121_197
*17769 FILLER_121_1977
*17770 FILLER_121_1979
*17771 FILLER_121_1981
*17772 FILLER_121_1989
*17773 FILLER_121_1997
*17774 FILLER_121_2005
*17775 FILLER_121_2013
*17776 FILLER_121_2021
*17777 FILLER_121_2029
*17778 FILLER_121_2037
*17779 FILLER_121_2039
*17780 FILLER_121_2041
*17781 FILLER_121_2049
*17504 FILLER_121_205
*17782 FILLER_121_2057
*17783 FILLER_121_2065
*17784 FILLER_121_2073
*17785 FILLER_121_2081
*17786 FILLER_121_2089
*17787 FILLER_121_2097
*17788 FILLER_121_2099
*17789 FILLER_121_2101
*17790 FILLER_121_2109
*17791 FILLER_121_2117
*17792 FILLER_121_2125
*17793 FILLER_121_2129
*17505 FILLER_121_213
*17506 FILLER_121_221
*17507 FILLER_121_229
*17508 FILLER_121_237
*17509 FILLER_121_239
*17478 FILLER_121_24
*17510 FILLER_121_241
*17511 FILLER_121_249
*17512 FILLER_121_257
*17513 FILLER_121_265
*17514 FILLER_121_273
*17515 FILLER_121_281
*17516 FILLER_121_289
*17517 FILLER_121_297
*17518 FILLER_121_299
*17519 FILLER_121_301
*17520 FILLER_121_309
*17521 FILLER_121_317
*17479 FILLER_121_32
*17522 FILLER_121_325
*17523 FILLER_121_333
*17524 FILLER_121_341
*17525 FILLER_121_349
*17526 FILLER_121_357
*17527 FILLER_121_359
*17528 FILLER_121_361
*17529 FILLER_121_369
*17530 FILLER_121_377
*17531 FILLER_121_385
*17532 FILLER_121_393
*17480 FILLER_121_40
*17533 FILLER_121_401
*17534 FILLER_121_409
*17535 FILLER_121_417
*17536 FILLER_121_419
*17537 FILLER_121_421
*17538 FILLER_121_429
*17539 FILLER_121_437
*17540 FILLER_121_445
*17541 FILLER_121_453
*17542 FILLER_121_461
*17543 FILLER_121_469
*17544 FILLER_121_477
*17545 FILLER_121_479
*17481 FILLER_121_48
*17546 FILLER_121_481
*17547 FILLER_121_489
*17548 FILLER_121_497
*17549 FILLER_121_505
*17550 FILLER_121_513
*17551 FILLER_121_521
*17552 FILLER_121_529
*17553 FILLER_121_537
*17554 FILLER_121_539
*17555 FILLER_121_541
*17556 FILLER_121_549
*17557 FILLER_121_557
*17482 FILLER_121_56
*17558 FILLER_121_565
*17559 FILLER_121_573
*17560 FILLER_121_581
*17561 FILLER_121_589
*17562 FILLER_121_597
*17563 FILLER_121_599
*17564 FILLER_121_601
*17565 FILLER_121_609
*17483 FILLER_121_61
*17566 FILLER_121_617
*17567 FILLER_121_625
*17568 FILLER_121_633
*17569 FILLER_121_641
*17570 FILLER_121_649
*17571 FILLER_121_657
*17572 FILLER_121_659
*17573 FILLER_121_661
*17574 FILLER_121_669
*17575 FILLER_121_677
*17576 FILLER_121_685
*17484 FILLER_121_69
*17577 FILLER_121_693
*17578 FILLER_121_701
*17579 FILLER_121_709
*17580 FILLER_121_717
*17581 FILLER_121_719
*17582 FILLER_121_721
*17583 FILLER_121_729
*17584 FILLER_121_737
*17585 FILLER_121_745
*17586 FILLER_121_753
*17587 FILLER_121_761
*17588 FILLER_121_769
*17485 FILLER_121_77
*17589 FILLER_121_777
*17590 FILLER_121_779
*17591 FILLER_121_781
*17592 FILLER_121_789
*17593 FILLER_121_797
*17476 FILLER_121_8
*17594 FILLER_121_805
*17595 FILLER_121_813
*17596 FILLER_121_821
*17597 FILLER_121_829
*17598 FILLER_121_837
*17599 FILLER_121_839
*17600 FILLER_121_841
*17601 FILLER_121_849
*17486 FILLER_121_85
*17602 FILLER_121_857
*17603 FILLER_121_865
*17604 FILLER_121_873
*17605 FILLER_121_881
*17606 FILLER_121_889
*17607 FILLER_121_897
*17608 FILLER_121_899
*17609 FILLER_121_901
*17610 FILLER_121_909
*17611 FILLER_121_917
*17612 FILLER_121_925
*17487 FILLER_121_93
*17613 FILLER_121_933
*17614 FILLER_121_941
*17615 FILLER_121_949
*17616 FILLER_121_957
*17617 FILLER_121_959
*17618 FILLER_121_961
*17619 FILLER_121_969
*17620 FILLER_121_977
*17621 FILLER_121_985
*17622 FILLER_121_993
*17794 FILLER_122_0
*17945 FILLER_122_1007
*17946 FILLER_122_1015
*17947 FILLER_122_1023
*17948 FILLER_122_1031
*17949 FILLER_122_1039
*17950 FILLER_122_1047
*17951 FILLER_122_1049
*17952 FILLER_122_1051
*17953 FILLER_122_1059
*17954 FILLER_122_1067
*17810 FILLER_122_107
*17955 FILLER_122_1075
*17956 FILLER_122_1083
*17957 FILLER_122_1091
*17958 FILLER_122_1099
*17959 FILLER_122_1107
*17960 FILLER_122_1109
*17961 FILLER_122_1111
*17962 FILLER_122_1119
*17963 FILLER_122_1127
*17964 FILLER_122_1135
*17965 FILLER_122_1143
*17811 FILLER_122_115
*17966 FILLER_122_1151
*17967 FILLER_122_1159
*17968 FILLER_122_1167
*17969 FILLER_122_1169
*17970 FILLER_122_1171
*17971 FILLER_122_1179
*17972 FILLER_122_1187
*17973 FILLER_122_1195
*17974 FILLER_122_1203
*17975 FILLER_122_1211
*17976 FILLER_122_1219
*17977 FILLER_122_1227
*17978 FILLER_122_1229
*17812 FILLER_122_123
*17979 FILLER_122_1231
*17980 FILLER_122_1239
*17981 FILLER_122_1247
*17982 FILLER_122_1255
*17983 FILLER_122_1263
*17984 FILLER_122_1271
*17985 FILLER_122_1279
*17986 FILLER_122_1287
*17987 FILLER_122_1289
*17988 FILLER_122_1291
*17989 FILLER_122_1299
*17990 FILLER_122_1307
*17813 FILLER_122_131
*17991 FILLER_122_1315
*17992 FILLER_122_1323
*17993 FILLER_122_1331
*17994 FILLER_122_1339
*17995 FILLER_122_1347
*17996 FILLER_122_1349
*17997 FILLER_122_1351
*17998 FILLER_122_1359
*17999 FILLER_122_1367
*18000 FILLER_122_1375
*18001 FILLER_122_1383
*17814 FILLER_122_139
*18002 FILLER_122_1391
*18003 FILLER_122_1399
*18004 FILLER_122_1407
*18005 FILLER_122_1409
*18006 FILLER_122_1411
*18007 FILLER_122_1419
*18008 FILLER_122_1427
*18009 FILLER_122_1435
*18010 FILLER_122_1443
*18011 FILLER_122_1451
*18012 FILLER_122_1459
*18013 FILLER_122_1467
*18014 FILLER_122_1469
*17815 FILLER_122_147
*18015 FILLER_122_1471
*18016 FILLER_122_1479
*18017 FILLER_122_1487
*17816 FILLER_122_149
*18018 FILLER_122_1495
*18019 FILLER_122_1503
*17817 FILLER_122_151
*18020 FILLER_122_1511
*18021 FILLER_122_1519
*18022 FILLER_122_1527
*18023 FILLER_122_1529
*18024 FILLER_122_1531
*18025 FILLER_122_1539
*18026 FILLER_122_1547
*18027 FILLER_122_1555
*18028 FILLER_122_1563
*18029 FILLER_122_1571
*18030 FILLER_122_1579
*18031 FILLER_122_1587
*18032 FILLER_122_1589
*17818 FILLER_122_159
*18033 FILLER_122_1591
*18034 FILLER_122_1599
*17796 FILLER_122_16
*18035 FILLER_122_1607
*18036 FILLER_122_1615
*18037 FILLER_122_1623
*18038 FILLER_122_1631
*18039 FILLER_122_1639
*18040 FILLER_122_1647
*18041 FILLER_122_1649
*18042 FILLER_122_1651
*18043 FILLER_122_1659
*18044 FILLER_122_1667
*17819 FILLER_122_167
*18045 FILLER_122_1675
*18046 FILLER_122_1683
*18047 FILLER_122_1691
*18048 FILLER_122_1699
*18049 FILLER_122_1707
*18050 FILLER_122_1709
*18051 FILLER_122_1711
*18052 FILLER_122_1719
*18053 FILLER_122_1727
*18054 FILLER_122_1735
*18055 FILLER_122_1743
*17820 FILLER_122_175
*18056 FILLER_122_1751
*18057 FILLER_122_1759
*18058 FILLER_122_1767
*18059 FILLER_122_1769
*18060 FILLER_122_1771
*18061 FILLER_122_1779
*18062 FILLER_122_1787
*18063 FILLER_122_1795
*18064 FILLER_122_1803
*18065 FILLER_122_1811
*18066 FILLER_122_1819
*18067 FILLER_122_1827
*18068 FILLER_122_1829
*17821 FILLER_122_183
*18069 FILLER_122_1831
*18070 FILLER_122_1839
*18071 FILLER_122_1847
*18072 FILLER_122_1855
*18073 FILLER_122_1863
*18074 FILLER_122_1871
*18075 FILLER_122_1879
*18076 FILLER_122_1887
*18077 FILLER_122_1889
*18078 FILLER_122_1891
*18079 FILLER_122_1899
*18080 FILLER_122_1907
*17822 FILLER_122_191
*18081 FILLER_122_1915
*18082 FILLER_122_1923
*18083 FILLER_122_1931
*18084 FILLER_122_1939
*18085 FILLER_122_1947
*18086 FILLER_122_1949
*18087 FILLER_122_1951
*18088 FILLER_122_1959
*18089 FILLER_122_1967
*18090 FILLER_122_1975
*18091 FILLER_122_1983
*17823 FILLER_122_199
*18092 FILLER_122_1991
*18093 FILLER_122_1999
*18094 FILLER_122_2007
*18095 FILLER_122_2009
*18096 FILLER_122_2011
*18097 FILLER_122_2019
*18098 FILLER_122_2027
*18099 FILLER_122_2035
*18100 FILLER_122_2043
*18101 FILLER_122_2051
*18102 FILLER_122_2059
*18103 FILLER_122_2067
*18104 FILLER_122_2069
*17824 FILLER_122_207
*18105 FILLER_122_2071
*18106 FILLER_122_2079
*18107 FILLER_122_2087
*17825 FILLER_122_209
*18108 FILLER_122_2095
*18109 FILLER_122_2103
*17826 FILLER_122_211
*18110 FILLER_122_2111
*18111 FILLER_122_2119
*18112 FILLER_122_2127
*18113 FILLER_122_2129
*17827 FILLER_122_219
*17828 FILLER_122_227
*17829 FILLER_122_235
*17797 FILLER_122_24
*17830 FILLER_122_243
*17831 FILLER_122_251
*17832 FILLER_122_259
*17833 FILLER_122_267
*17834 FILLER_122_269
*17835 FILLER_122_271
*17836 FILLER_122_279
*17798 FILLER_122_28
*17837 FILLER_122_287
*17838 FILLER_122_295
*17839 FILLER_122_303
*17799 FILLER_122_31
*17840 FILLER_122_311
*17841 FILLER_122_319
*17842 FILLER_122_327
*17843 FILLER_122_329
*17844 FILLER_122_331
*17845 FILLER_122_339
*17846 FILLER_122_347
*17847 FILLER_122_355
*17848 FILLER_122_363
*17849 FILLER_122_371
*17850 FILLER_122_379
*17851 FILLER_122_387
*17852 FILLER_122_389
*17800 FILLER_122_39
*17853 FILLER_122_391
*17854 FILLER_122_399
*17855 FILLER_122_407
*17856 FILLER_122_415
*17857 FILLER_122_423
*17858 FILLER_122_431
*17859 FILLER_122_439
*17860 FILLER_122_447
*17861 FILLER_122_449
*17862 FILLER_122_451
*17863 FILLER_122_459
*17864 FILLER_122_467
*17801 FILLER_122_47
*17865 FILLER_122_475
*17866 FILLER_122_483
*17867 FILLER_122_491
*17868 FILLER_122_499
*17869 FILLER_122_507
*17870 FILLER_122_509
*17871 FILLER_122_511
*17872 FILLER_122_519
*17873 FILLER_122_527
*17874 FILLER_122_535
*17875 FILLER_122_543
*17802 FILLER_122_55
*17876 FILLER_122_551
*17877 FILLER_122_559
*17878 FILLER_122_567
*17879 FILLER_122_569
*17880 FILLER_122_571
*17881 FILLER_122_579
*17882 FILLER_122_587
*17883 FILLER_122_595
*17884 FILLER_122_603
*17885 FILLER_122_611
*17886 FILLER_122_619
*17887 FILLER_122_627
*17888 FILLER_122_629
*17803 FILLER_122_63
*17889 FILLER_122_631
*17890 FILLER_122_639
*17891 FILLER_122_647
*17892 FILLER_122_655
*17893 FILLER_122_663
*17894 FILLER_122_671
*17895 FILLER_122_679
*17896 FILLER_122_687
*17897 FILLER_122_689
*17898 FILLER_122_691
*17899 FILLER_122_699
*17900 FILLER_122_707
*17804 FILLER_122_71
*17901 FILLER_122_715
*17902 FILLER_122_723
*17903 FILLER_122_731
*17904 FILLER_122_739
*17905 FILLER_122_747
*17906 FILLER_122_749
*17907 FILLER_122_751
*17908 FILLER_122_759
*17909 FILLER_122_767
*17910 FILLER_122_775
*17911 FILLER_122_783
*17805 FILLER_122_79
*17912 FILLER_122_791
*17913 FILLER_122_799
*17795 FILLER_122_8
*17914 FILLER_122_807
*17915 FILLER_122_809
*17916 FILLER_122_811
*17917 FILLER_122_819
*17918 FILLER_122_827
*17919 FILLER_122_835
*17920 FILLER_122_843
*17921 FILLER_122_851
*17922 FILLER_122_859
*17923 FILLER_122_867
*17924 FILLER_122_869
*17806 FILLER_122_87
*17925 FILLER_122_871
*17926 FILLER_122_879
*17927 FILLER_122_887
*17807 FILLER_122_89
*17928 FILLER_122_895
*17929 FILLER_122_903
*17808 FILLER_122_91
*17930 FILLER_122_911
*17931 FILLER_122_919
*17932 FILLER_122_927
*17933 FILLER_122_929
*17934 FILLER_122_931
*17935 FILLER_122_939
*17936 FILLER_122_947
*17937 FILLER_122_955
*17938 FILLER_122_963
*17939 FILLER_122_971
*17940 FILLER_122_979
*17941 FILLER_122_987
*17942 FILLER_122_989
*17809 FILLER_122_99
*17943 FILLER_122_991
*17944 FILLER_122_999
*18114 FILLER_123_0
*18261 FILLER_123_1001
*18262 FILLER_123_1009
*18127 FILLER_123_101
*18263 FILLER_123_1017
*18264 FILLER_123_1019
*18265 FILLER_123_1021
*18266 FILLER_123_1029
*18267 FILLER_123_1037
*18268 FILLER_123_1045
*18269 FILLER_123_1053
*18270 FILLER_123_1061
*18271 FILLER_123_1069
*18272 FILLER_123_1077
*18273 FILLER_123_1079
*18274 FILLER_123_1081
*18275 FILLER_123_1089
*18128 FILLER_123_109
*18276 FILLER_123_1097
*18277 FILLER_123_1105
*18278 FILLER_123_1113
*18279 FILLER_123_1121
*18280 FILLER_123_1129
*18281 FILLER_123_1137
*18282 FILLER_123_1139
*18283 FILLER_123_1141
*18284 FILLER_123_1149
*18285 FILLER_123_1157
*18286 FILLER_123_1165
*18129 FILLER_123_117
*18287 FILLER_123_1173
*18288 FILLER_123_1181
*18289 FILLER_123_1189
*18130 FILLER_123_119
*18290 FILLER_123_1197
*18291 FILLER_123_1199
*18292 FILLER_123_1201
*18293 FILLER_123_1209
*18131 FILLER_123_121
*18294 FILLER_123_1217
*18295 FILLER_123_1225
*18296 FILLER_123_1233
*18297 FILLER_123_1241
*18298 FILLER_123_1249
*18299 FILLER_123_1257
*18300 FILLER_123_1259
*18301 FILLER_123_1261
*18302 FILLER_123_1269
*18303 FILLER_123_1277
*18304 FILLER_123_1285
*18132 FILLER_123_129
*18305 FILLER_123_1293
*18306 FILLER_123_1301
*18307 FILLER_123_1309
*18308 FILLER_123_1317
*18309 FILLER_123_1319
*18310 FILLER_123_1321
*18311 FILLER_123_1329
*18312 FILLER_123_1337
*18313 FILLER_123_1345
*18314 FILLER_123_1353
*18315 FILLER_123_1361
*18316 FILLER_123_1369
*18133 FILLER_123_137
*18317 FILLER_123_1377
*18318 FILLER_123_1379
*18319 FILLER_123_1381
*18320 FILLER_123_1389
*18321 FILLER_123_1397
*18322 FILLER_123_1405
*18323 FILLER_123_1413
*18324 FILLER_123_1421
*18325 FILLER_123_1429
*18326 FILLER_123_1437
*18327 FILLER_123_1439
*18328 FILLER_123_1441
*18329 FILLER_123_1449
*18134 FILLER_123_145
*18330 FILLER_123_1457
*18331 FILLER_123_1465
*18332 FILLER_123_1473
*18333 FILLER_123_1481
*18334 FILLER_123_1489
*18335 FILLER_123_1497
*18336 FILLER_123_1499
*18337 FILLER_123_1501
*18338 FILLER_123_1509
*18339 FILLER_123_1517
*18340 FILLER_123_1525
*18135 FILLER_123_153
*18341 FILLER_123_1533
*18342 FILLER_123_1541
*18343 FILLER_123_1549
*18344 FILLER_123_1557
*18345 FILLER_123_1559
*18346 FILLER_123_1561
*18347 FILLER_123_1569
*18348 FILLER_123_1577
*18349 FILLER_123_1585
*18350 FILLER_123_1593
*18116 FILLER_123_16
*18351 FILLER_123_1601
*18352 FILLER_123_1609
*18136 FILLER_123_161
*18353 FILLER_123_1617
*18354 FILLER_123_1619
*18355 FILLER_123_1621
*18356 FILLER_123_1629
*18357 FILLER_123_1637
*18358 FILLER_123_1645
*18359 FILLER_123_1653
*18360 FILLER_123_1661
*18361 FILLER_123_1669
*18362 FILLER_123_1677
*18363 FILLER_123_1679
*18364 FILLER_123_1681
*18365 FILLER_123_1689
*18137 FILLER_123_169
*18366 FILLER_123_1697
*18367 FILLER_123_1705
*18368 FILLER_123_1713
*18369 FILLER_123_1721
*18370 FILLER_123_1729
*18371 FILLER_123_1737
*18372 FILLER_123_1739
*18373 FILLER_123_1741
*18374 FILLER_123_1749
*18375 FILLER_123_1757
*18376 FILLER_123_1765
*18138 FILLER_123_177
*18377 FILLER_123_1773
*18378 FILLER_123_1781
*18379 FILLER_123_1789
*18139 FILLER_123_179
*18380 FILLER_123_1797
*18381 FILLER_123_1799
*18382 FILLER_123_1801
*18383 FILLER_123_1809
*18140 FILLER_123_181
*18384 FILLER_123_1817
*18385 FILLER_123_1825
*18386 FILLER_123_1833
*18387 FILLER_123_1841
*18388 FILLER_123_1849
*18389 FILLER_123_1857
*18390 FILLER_123_1859
*18391 FILLER_123_1861
*18392 FILLER_123_1869
*18393 FILLER_123_1877
*18394 FILLER_123_1885
*18141 FILLER_123_189
*18395 FILLER_123_1893
*18396 FILLER_123_1901
*18397 FILLER_123_1909
*18398 FILLER_123_1917
*18399 FILLER_123_1919
*18400 FILLER_123_1921
*18401 FILLER_123_1929
*18402 FILLER_123_1937
*18403 FILLER_123_1945
*18404 FILLER_123_1953
*18405 FILLER_123_1961
*18406 FILLER_123_1969
*18142 FILLER_123_197
*18407 FILLER_123_1977
*18408 FILLER_123_1979
*18409 FILLER_123_1981
*18410 FILLER_123_1989
*18411 FILLER_123_1997
*18412 FILLER_123_2005
*18413 FILLER_123_2013
*18414 FILLER_123_2021
*18415 FILLER_123_2029
*18416 FILLER_123_2037
*18417 FILLER_123_2039
*18418 FILLER_123_2041
*18419 FILLER_123_2049
*18143 FILLER_123_205
*18420 FILLER_123_2057
*18421 FILLER_123_2065
*18422 FILLER_123_2073
*18423 FILLER_123_2081
*18424 FILLER_123_2089
*18425 FILLER_123_2097
*18426 FILLER_123_2099
*18427 FILLER_123_2101
*18428 FILLER_123_2109
*18429 FILLER_123_2117
*18430 FILLER_123_2125
*18431 FILLER_123_2129
*18144 FILLER_123_213
*18145 FILLER_123_221
*18146 FILLER_123_229
*18147 FILLER_123_237
*18148 FILLER_123_239
*18117 FILLER_123_24
*18149 FILLER_123_241
*18150 FILLER_123_249
*18151 FILLER_123_257
*18152 FILLER_123_265
*18153 FILLER_123_273
*18154 FILLER_123_281
*18155 FILLER_123_289
*18156 FILLER_123_297
*18157 FILLER_123_299
*18158 FILLER_123_301
*18159 FILLER_123_309
*18160 FILLER_123_317
*18118 FILLER_123_32
*18161 FILLER_123_325
*18162 FILLER_123_333
*18163 FILLER_123_341
*18164 FILLER_123_349
*18165 FILLER_123_357
*18166 FILLER_123_359
*18167 FILLER_123_361
*18168 FILLER_123_369
*18169 FILLER_123_377
*18170 FILLER_123_385
*18171 FILLER_123_393
*18119 FILLER_123_40
*18172 FILLER_123_401
*18173 FILLER_123_409
*18174 FILLER_123_417
*18175 FILLER_123_419
*18176 FILLER_123_421
*18177 FILLER_123_429
*18178 FILLER_123_437
*18179 FILLER_123_445
*18180 FILLER_123_453
*18181 FILLER_123_461
*18182 FILLER_123_469
*18183 FILLER_123_477
*18184 FILLER_123_479
*18120 FILLER_123_48
*18185 FILLER_123_481
*18186 FILLER_123_489
*18187 FILLER_123_497
*18188 FILLER_123_505
*18189 FILLER_123_513
*18190 FILLER_123_521
*18191 FILLER_123_529
*18192 FILLER_123_537
*18193 FILLER_123_539
*18194 FILLER_123_541
*18195 FILLER_123_549
*18196 FILLER_123_557
*18121 FILLER_123_56
*18197 FILLER_123_565
*18198 FILLER_123_573
*18199 FILLER_123_581
*18200 FILLER_123_589
*18201 FILLER_123_597
*18202 FILLER_123_599
*18203 FILLER_123_601
*18204 FILLER_123_609
*18122 FILLER_123_61
*18205 FILLER_123_625
*18206 FILLER_123_633
*18207 FILLER_123_641
*18208 FILLER_123_649
*18209 FILLER_123_657
*18210 FILLER_123_659
*18211 FILLER_123_661
*18212 FILLER_123_669
*18213 FILLER_123_677
*18214 FILLER_123_685
*18123 FILLER_123_69
*18215 FILLER_123_693
*18216 FILLER_123_701
*18217 FILLER_123_709
*18218 FILLER_123_717
*18219 FILLER_123_719
*18220 FILLER_123_721
*18221 FILLER_123_729
*18222 FILLER_123_737
*18223 FILLER_123_745
*18224 FILLER_123_753
*18225 FILLER_123_761
*18226 FILLER_123_769
*18124 FILLER_123_77
*18227 FILLER_123_777
*18228 FILLER_123_779
*18229 FILLER_123_781
*18230 FILLER_123_789
*18231 FILLER_123_797
*18115 FILLER_123_8
*18232 FILLER_123_805
*18233 FILLER_123_813
*18234 FILLER_123_821
*18235 FILLER_123_829
*18236 FILLER_123_837
*18237 FILLER_123_839
*18238 FILLER_123_841
*18239 FILLER_123_849
*18125 FILLER_123_85
*18240 FILLER_123_857
*18241 FILLER_123_865
*18242 FILLER_123_873
*18243 FILLER_123_881
*18244 FILLER_123_889
*18245 FILLER_123_897
*18246 FILLER_123_899
*18247 FILLER_123_901
*18248 FILLER_123_909
*18249 FILLER_123_917
*18250 FILLER_123_925
*18126 FILLER_123_93
*18251 FILLER_123_933
*18252 FILLER_123_941
*18253 FILLER_123_949
*18254 FILLER_123_957
*18255 FILLER_123_959
*18256 FILLER_123_961
*18257 FILLER_123_969
*18258 FILLER_123_977
*18259 FILLER_123_985
*18260 FILLER_123_993
*18432 FILLER_124_0
*18583 FILLER_124_1007
*18584 FILLER_124_1015
*18585 FILLER_124_1023
*18586 FILLER_124_1031
*18587 FILLER_124_1039
*18588 FILLER_124_1047
*18589 FILLER_124_1049
*18590 FILLER_124_1051
*18591 FILLER_124_1059
*18592 FILLER_124_1067
*18448 FILLER_124_107
*18593 FILLER_124_1075
*18594 FILLER_124_1083
*18595 FILLER_124_1091
*18596 FILLER_124_1099
*18597 FILLER_124_1107
*18598 FILLER_124_1109
*18599 FILLER_124_1111
*18600 FILLER_124_1119
*18601 FILLER_124_1127
*18602 FILLER_124_1135
*18603 FILLER_124_1143
*18449 FILLER_124_115
*18604 FILLER_124_1151
*18605 FILLER_124_1159
*18606 FILLER_124_1167
*18607 FILLER_124_1169
*18608 FILLER_124_1171
*18609 FILLER_124_1179
*18610 FILLER_124_1187
*18611 FILLER_124_1195
*18612 FILLER_124_1203
*18613 FILLER_124_1211
*18614 FILLER_124_1219
*18615 FILLER_124_1227
*18616 FILLER_124_1229
*18450 FILLER_124_123
*18617 FILLER_124_1231
*18618 FILLER_124_1239
*18619 FILLER_124_1247
*18620 FILLER_124_1255
*18621 FILLER_124_1263
*18622 FILLER_124_1271
*18623 FILLER_124_1279
*18624 FILLER_124_1287
*18625 FILLER_124_1289
*18626 FILLER_124_1291
*18627 FILLER_124_1299
*18628 FILLER_124_1307
*18451 FILLER_124_131
*18629 FILLER_124_1315
*18630 FILLER_124_1323
*18631 FILLER_124_1331
*18632 FILLER_124_1339
*18633 FILLER_124_1347
*18634 FILLER_124_1349
*18635 FILLER_124_1351
*18636 FILLER_124_1359
*18637 FILLER_124_1367
*18638 FILLER_124_1375
*18639 FILLER_124_1383
*18452 FILLER_124_139
*18640 FILLER_124_1391
*18641 FILLER_124_1399
*18642 FILLER_124_1407
*18643 FILLER_124_1409
*18644 FILLER_124_1411
*18645 FILLER_124_1419
*18646 FILLER_124_1427
*18647 FILLER_124_1435
*18648 FILLER_124_1443
*18649 FILLER_124_1451
*18650 FILLER_124_1459
*18651 FILLER_124_1467
*18652 FILLER_124_1469
*18453 FILLER_124_147
*18653 FILLER_124_1471
*18654 FILLER_124_1479
*18655 FILLER_124_1487
*18454 FILLER_124_149
*18656 FILLER_124_1495
*18657 FILLER_124_1503
*18455 FILLER_124_151
*18658 FILLER_124_1511
*18659 FILLER_124_1519
*18660 FILLER_124_1527
*18661 FILLER_124_1529
*18662 FILLER_124_1531
*18663 FILLER_124_1539
*18664 FILLER_124_1547
*18665 FILLER_124_1555
*18666 FILLER_124_1563
*18667 FILLER_124_1571
*18668 FILLER_124_1579
*18669 FILLER_124_1587
*18670 FILLER_124_1589
*18456 FILLER_124_159
*18671 FILLER_124_1591
*18672 FILLER_124_1599
*18434 FILLER_124_16
*18673 FILLER_124_1607
*18674 FILLER_124_1615
*18675 FILLER_124_1623
*18676 FILLER_124_1631
*18677 FILLER_124_1639
*18678 FILLER_124_1647
*18679 FILLER_124_1649
*18680 FILLER_124_1651
*18681 FILLER_124_1659
*18682 FILLER_124_1667
*18457 FILLER_124_167
*18683 FILLER_124_1675
*18684 FILLER_124_1683
*18685 FILLER_124_1691
*18686 FILLER_124_1699
*18687 FILLER_124_1707
*18688 FILLER_124_1709
*18689 FILLER_124_1711
*18690 FILLER_124_1719
*18691 FILLER_124_1727
*18692 FILLER_124_1735
*18693 FILLER_124_1743
*18458 FILLER_124_175
*18694 FILLER_124_1751
*18695 FILLER_124_1759
*18696 FILLER_124_1767
*18697 FILLER_124_1769
*18698 FILLER_124_1771
*18699 FILLER_124_1779
*18700 FILLER_124_1787
*18701 FILLER_124_1795
*18702 FILLER_124_1803
*18703 FILLER_124_1811
*18704 FILLER_124_1819
*18705 FILLER_124_1827
*18706 FILLER_124_1829
*18459 FILLER_124_183
*18707 FILLER_124_1831
*18708 FILLER_124_1839
*18709 FILLER_124_1847
*18710 FILLER_124_1855
*18711 FILLER_124_1863
*18712 FILLER_124_1871
*18713 FILLER_124_1879
*18714 FILLER_124_1887
*18715 FILLER_124_1889
*18716 FILLER_124_1891
*18717 FILLER_124_1899
*18718 FILLER_124_1907
*18460 FILLER_124_191
*18719 FILLER_124_1915
*18720 FILLER_124_1923
*18721 FILLER_124_1931
*18722 FILLER_124_1939
*18723 FILLER_124_1947
*18724 FILLER_124_1949
*18725 FILLER_124_1951
*18726 FILLER_124_1959
*18727 FILLER_124_1967
*18728 FILLER_124_1975
*18729 FILLER_124_1983
*18461 FILLER_124_199
*18730 FILLER_124_1991
*18731 FILLER_124_1999
*18732 FILLER_124_2007
*18733 FILLER_124_2009
*18734 FILLER_124_2011
*18735 FILLER_124_2019
*18736 FILLER_124_2027
*18737 FILLER_124_2035
*18738 FILLER_124_2043
*18739 FILLER_124_2051
*18740 FILLER_124_2059
*18741 FILLER_124_2067
*18742 FILLER_124_2069
*18462 FILLER_124_207
*18743 FILLER_124_2071
*18744 FILLER_124_2079
*18745 FILLER_124_2087
*18463 FILLER_124_209
*18746 FILLER_124_2095
*18747 FILLER_124_2103
*18464 FILLER_124_211
*18748 FILLER_124_2111
*18749 FILLER_124_2119
*18750 FILLER_124_2127
*18751 FILLER_124_2129
*18465 FILLER_124_219
*18466 FILLER_124_227
*18467 FILLER_124_235
*18435 FILLER_124_24
*18468 FILLER_124_243
*18469 FILLER_124_251
*18470 FILLER_124_259
*18471 FILLER_124_267
*18472 FILLER_124_269
*18473 FILLER_124_271
*18474 FILLER_124_279
*18436 FILLER_124_28
*18475 FILLER_124_287
*18476 FILLER_124_295
*18477 FILLER_124_303
*18437 FILLER_124_31
*18478 FILLER_124_311
*18479 FILLER_124_319
*18480 FILLER_124_327
*18481 FILLER_124_329
*18482 FILLER_124_331
*18483 FILLER_124_339
*18484 FILLER_124_347
*18485 FILLER_124_355
*18486 FILLER_124_363
*18487 FILLER_124_371
*18488 FILLER_124_379
*18489 FILLER_124_387
*18490 FILLER_124_389
*18438 FILLER_124_39
*18491 FILLER_124_391
*18492 FILLER_124_399
*18493 FILLER_124_407
*18494 FILLER_124_415
*18495 FILLER_124_423
*18496 FILLER_124_431
*18497 FILLER_124_439
*18498 FILLER_124_447
*18499 FILLER_124_449
*18500 FILLER_124_451
*18501 FILLER_124_459
*18502 FILLER_124_467
*18439 FILLER_124_47
*18503 FILLER_124_475
*18504 FILLER_124_483
*18505 FILLER_124_491
*18506 FILLER_124_499
*18507 FILLER_124_507
*18508 FILLER_124_509
*18509 FILLER_124_511
*18510 FILLER_124_519
*18511 FILLER_124_527
*18512 FILLER_124_535
*18513 FILLER_124_543
*18440 FILLER_124_55
*18514 FILLER_124_551
*18515 FILLER_124_559
*18516 FILLER_124_567
*18517 FILLER_124_569
*18518 FILLER_124_571
*18519 FILLER_124_579
*18520 FILLER_124_587
*18521 FILLER_124_595
*18522 FILLER_124_603
*18523 FILLER_124_611
*18524 FILLER_124_619
*18525 FILLER_124_627
*18526 FILLER_124_629
*18441 FILLER_124_63
*18527 FILLER_124_631
*18528 FILLER_124_639
*18529 FILLER_124_647
*18530 FILLER_124_655
*18531 FILLER_124_663
*18532 FILLER_124_671
*18533 FILLER_124_679
*18534 FILLER_124_687
*18535 FILLER_124_689
*18536 FILLER_124_691
*18537 FILLER_124_699
*18538 FILLER_124_707
*18442 FILLER_124_71
*18539 FILLER_124_715
*18540 FILLER_124_723
*18541 FILLER_124_731
*18542 FILLER_124_739
*18543 FILLER_124_747
*18544 FILLER_124_749
*18545 FILLER_124_751
*18546 FILLER_124_759
*18547 FILLER_124_767
*18548 FILLER_124_775
*18549 FILLER_124_783
*18443 FILLER_124_79
*18550 FILLER_124_791
*18551 FILLER_124_799
*18433 FILLER_124_8
*18552 FILLER_124_807
*18553 FILLER_124_809
*18554 FILLER_124_811
*18555 FILLER_124_819
*18556 FILLER_124_827
*18557 FILLER_124_835
*18558 FILLER_124_843
*18559 FILLER_124_851
*18560 FILLER_124_859
*18561 FILLER_124_867
*18562 FILLER_124_869
*18444 FILLER_124_87
*18563 FILLER_124_871
*18564 FILLER_124_879
*18565 FILLER_124_887
*18445 FILLER_124_89
*18566 FILLER_124_895
*18567 FILLER_124_903
*18446 FILLER_124_91
*18568 FILLER_124_911
*18569 FILLER_124_919
*18570 FILLER_124_927
*18571 FILLER_124_929
*18572 FILLER_124_931
*18573 FILLER_124_939
*18574 FILLER_124_947
*18575 FILLER_124_955
*18576 FILLER_124_963
*18577 FILLER_124_971
*18578 FILLER_124_979
*18579 FILLER_124_987
*18580 FILLER_124_989
*18447 FILLER_124_99
*18581 FILLER_124_991
*18582 FILLER_124_999
*18752 FILLER_125_0
*18900 FILLER_125_1001
*18901 FILLER_125_1009
*18765 FILLER_125_101
*18902 FILLER_125_1017
*18903 FILLER_125_1019
*18904 FILLER_125_1021
*18905 FILLER_125_1029
*18906 FILLER_125_1037
*18907 FILLER_125_1045
*18908 FILLER_125_1053
*18909 FILLER_125_1061
*18910 FILLER_125_1069
*18911 FILLER_125_1077
*18912 FILLER_125_1079
*18913 FILLER_125_1081
*18914 FILLER_125_1089
*18766 FILLER_125_109
*18915 FILLER_125_1097
*18916 FILLER_125_1105
*18917 FILLER_125_1113
*18918 FILLER_125_1121
*18919 FILLER_125_1129
*18920 FILLER_125_1137
*18921 FILLER_125_1139
*18922 FILLER_125_1141
*18923 FILLER_125_1149
*18924 FILLER_125_1157
*18925 FILLER_125_1165
*18767 FILLER_125_117
*18926 FILLER_125_1173
*18927 FILLER_125_1181
*18928 FILLER_125_1189
*18768 FILLER_125_119
*18929 FILLER_125_1197
*18930 FILLER_125_1199
*18931 FILLER_125_1201
*18932 FILLER_125_1209
*18769 FILLER_125_121
*18933 FILLER_125_1217
*18934 FILLER_125_1225
*18935 FILLER_125_1233
*18936 FILLER_125_1241
*18937 FILLER_125_1249
*18938 FILLER_125_1257
*18939 FILLER_125_1259
*18940 FILLER_125_1261
*18941 FILLER_125_1269
*18942 FILLER_125_1277
*18943 FILLER_125_1285
*18770 FILLER_125_129
*18944 FILLER_125_1293
*18945 FILLER_125_1301
*18946 FILLER_125_1309
*18947 FILLER_125_1317
*18948 FILLER_125_1319
*18949 FILLER_125_1321
*18950 FILLER_125_1329
*18951 FILLER_125_1337
*18952 FILLER_125_1345
*18953 FILLER_125_1353
*18954 FILLER_125_1361
*18955 FILLER_125_1369
*18771 FILLER_125_137
*18956 FILLER_125_1377
*18957 FILLER_125_1379
*18958 FILLER_125_1381
*18959 FILLER_125_1389
*18960 FILLER_125_1397
*18961 FILLER_125_1405
*18962 FILLER_125_1413
*18963 FILLER_125_1421
*18964 FILLER_125_1429
*18965 FILLER_125_1437
*18966 FILLER_125_1439
*18967 FILLER_125_1441
*18968 FILLER_125_1449
*18772 FILLER_125_145
*18969 FILLER_125_1457
*18970 FILLER_125_1465
*18971 FILLER_125_1473
*18972 FILLER_125_1481
*18973 FILLER_125_1489
*18974 FILLER_125_1497
*18975 FILLER_125_1499
*18976 FILLER_125_1501
*18977 FILLER_125_1509
*18978 FILLER_125_1517
*18979 FILLER_125_1525
*18773 FILLER_125_153
*18980 FILLER_125_1533
*18981 FILLER_125_1541
*18982 FILLER_125_1549
*18983 FILLER_125_1557
*18984 FILLER_125_1559
*18985 FILLER_125_1561
*18986 FILLER_125_1569
*18987 FILLER_125_1577
*18988 FILLER_125_1585
*18989 FILLER_125_1593
*18754 FILLER_125_16
*18990 FILLER_125_1601
*18991 FILLER_125_1609
*18774 FILLER_125_161
*18992 FILLER_125_1617
*18993 FILLER_125_1619
*18994 FILLER_125_1621
*18995 FILLER_125_1629
*18996 FILLER_125_1637
*18997 FILLER_125_1645
*18998 FILLER_125_1653
*18999 FILLER_125_1661
*19000 FILLER_125_1669
*19001 FILLER_125_1677
*19002 FILLER_125_1679
*19003 FILLER_125_1681
*19004 FILLER_125_1689
*18775 FILLER_125_169
*19005 FILLER_125_1697
*19006 FILLER_125_1705
*19007 FILLER_125_1713
*19008 FILLER_125_1721
*19009 FILLER_125_1729
*19010 FILLER_125_1737
*19011 FILLER_125_1739
*19012 FILLER_125_1741
*19013 FILLER_125_1749
*19014 FILLER_125_1757
*19015 FILLER_125_1765
*18776 FILLER_125_177
*19016 FILLER_125_1773
*19017 FILLER_125_1781
*19018 FILLER_125_1789
*18777 FILLER_125_179
*19019 FILLER_125_1797
*19020 FILLER_125_1799
*19021 FILLER_125_1801
*19022 FILLER_125_1809
*18778 FILLER_125_181
*19023 FILLER_125_1817
*19024 FILLER_125_1825
*19025 FILLER_125_1833
*19026 FILLER_125_1841
*19027 FILLER_125_1849
*19028 FILLER_125_1857
*19029 FILLER_125_1859
*19030 FILLER_125_1861
*19031 FILLER_125_1869
*19032 FILLER_125_1877
*19033 FILLER_125_1885
*18779 FILLER_125_189
*19034 FILLER_125_1893
*19035 FILLER_125_1901
*19036 FILLER_125_1909
*19037 FILLER_125_1917
*19038 FILLER_125_1919
*19039 FILLER_125_1921
*19040 FILLER_125_1929
*19041 FILLER_125_1937
*19042 FILLER_125_1945
*19043 FILLER_125_1953
*19044 FILLER_125_1961
*19045 FILLER_125_1969
*18780 FILLER_125_197
*19046 FILLER_125_1977
*19047 FILLER_125_1979
*19048 FILLER_125_1981
*19049 FILLER_125_1989
*19050 FILLER_125_1997
*19051 FILLER_125_2005
*19052 FILLER_125_2013
*19053 FILLER_125_2021
*19054 FILLER_125_2029
*19055 FILLER_125_2037
*19056 FILLER_125_2039
*19057 FILLER_125_2041
*19058 FILLER_125_2049
*18781 FILLER_125_205
*19059 FILLER_125_2057
*19060 FILLER_125_2065
*19061 FILLER_125_2073
*19062 FILLER_125_2081
*19063 FILLER_125_2089
*19064 FILLER_125_2097
*19065 FILLER_125_2099
*19066 FILLER_125_2101
*19067 FILLER_125_2109
*19068 FILLER_125_2117
*19069 FILLER_125_2125
*19070 FILLER_125_2129
*18782 FILLER_125_213
*18783 FILLER_125_221
*18784 FILLER_125_229
*18785 FILLER_125_237
*18786 FILLER_125_239
*18755 FILLER_125_24
*18787 FILLER_125_241
*18788 FILLER_125_249
*18789 FILLER_125_257
*18790 FILLER_125_265
*18791 FILLER_125_273
*18792 FILLER_125_281
*18793 FILLER_125_289
*18794 FILLER_125_297
*18795 FILLER_125_299
*18796 FILLER_125_301
*18797 FILLER_125_309
*18798 FILLER_125_317
*18756 FILLER_125_32
*18799 FILLER_125_325
*18800 FILLER_125_333
*18801 FILLER_125_341
*18802 FILLER_125_349
*18803 FILLER_125_357
*18804 FILLER_125_359
*18805 FILLER_125_361
*18806 FILLER_125_369
*18807 FILLER_125_377
*18808 FILLER_125_385
*18809 FILLER_125_393
*18757 FILLER_125_40
*18810 FILLER_125_401
*18811 FILLER_125_409
*18812 FILLER_125_417
*18813 FILLER_125_419
*18814 FILLER_125_421
*18815 FILLER_125_429
*18816 FILLER_125_437
*18817 FILLER_125_445
*18818 FILLER_125_453
*18819 FILLER_125_461
*18820 FILLER_125_469
*18821 FILLER_125_477
*18822 FILLER_125_479
*18758 FILLER_125_48
*18823 FILLER_125_481
*18824 FILLER_125_489
*18825 FILLER_125_497
*18826 FILLER_125_505
*18827 FILLER_125_513
*18828 FILLER_125_521
*18829 FILLER_125_529
*18830 FILLER_125_537
*18831 FILLER_125_539
*18832 FILLER_125_541
*18833 FILLER_125_549
*18834 FILLER_125_557
*18759 FILLER_125_56
*18835 FILLER_125_565
*18836 FILLER_125_573
*18837 FILLER_125_581
*18838 FILLER_125_589
*18839 FILLER_125_597
*18840 FILLER_125_599
*18841 FILLER_125_601
*18842 FILLER_125_609
*18760 FILLER_125_61
*18843 FILLER_125_617
*18844 FILLER_125_625
*18845 FILLER_125_633
*18846 FILLER_125_641
*18847 FILLER_125_649
*18848 FILLER_125_657
*18849 FILLER_125_659
*18850 FILLER_125_661
*18851 FILLER_125_669
*18852 FILLER_125_677
*18853 FILLER_125_685
*18761 FILLER_125_69
*18854 FILLER_125_693
*18855 FILLER_125_701
*18856 FILLER_125_709
*18857 FILLER_125_717
*18858 FILLER_125_719
*18859 FILLER_125_721
*18860 FILLER_125_729
*18861 FILLER_125_737
*18862 FILLER_125_745
*18863 FILLER_125_753
*18864 FILLER_125_761
*18865 FILLER_125_769
*18762 FILLER_125_77
*18866 FILLER_125_777
*18867 FILLER_125_779
*18868 FILLER_125_781
*18869 FILLER_125_789
*18870 FILLER_125_797
*18753 FILLER_125_8
*18871 FILLER_125_805
*18872 FILLER_125_813
*18873 FILLER_125_821
*18874 FILLER_125_829
*18875 FILLER_125_837
*18876 FILLER_125_839
*18877 FILLER_125_841
*18878 FILLER_125_849
*18763 FILLER_125_85
*18879 FILLER_125_857
*18880 FILLER_125_865
*18881 FILLER_125_873
*18882 FILLER_125_881
*18883 FILLER_125_889
*18884 FILLER_125_897
*18885 FILLER_125_899
*18886 FILLER_125_901
*18887 FILLER_125_909
*18888 FILLER_125_917
*18889 FILLER_125_925
*18764 FILLER_125_93
*18890 FILLER_125_933
*18891 FILLER_125_941
*18892 FILLER_125_949
*18893 FILLER_125_957
*18894 FILLER_125_959
*18895 FILLER_125_961
*18896 FILLER_125_969
*18897 FILLER_125_977
*18898 FILLER_125_985
*18899 FILLER_125_993
*19071 FILLER_126_0
*19222 FILLER_126_1007
*19223 FILLER_126_1015
*19224 FILLER_126_1023
*19225 FILLER_126_1031
*19226 FILLER_126_1039
*19227 FILLER_126_1047
*19228 FILLER_126_1049
*19229 FILLER_126_1051
*19230 FILLER_126_1059
*19231 FILLER_126_1067
*19087 FILLER_126_107
*19232 FILLER_126_1075
*19233 FILLER_126_1083
*19234 FILLER_126_1091
*19235 FILLER_126_1099
*19236 FILLER_126_1107
*19237 FILLER_126_1109
*19238 FILLER_126_1111
*19239 FILLER_126_1119
*19240 FILLER_126_1127
*19241 FILLER_126_1135
*19242 FILLER_126_1143
*19088 FILLER_126_115
*19243 FILLER_126_1151
*19244 FILLER_126_1159
*19245 FILLER_126_1167
*19246 FILLER_126_1169
*19247 FILLER_126_1171
*19248 FILLER_126_1179
*19249 FILLER_126_1187
*19250 FILLER_126_1195
*19251 FILLER_126_1203
*19252 FILLER_126_1211
*19253 FILLER_126_1219
*19254 FILLER_126_1227
*19255 FILLER_126_1229
*19089 FILLER_126_123
*19256 FILLER_126_1231
*19257 FILLER_126_1239
*19258 FILLER_126_1247
*19259 FILLER_126_1255
*19260 FILLER_126_1263
*19261 FILLER_126_1271
*19262 FILLER_126_1279
*19263 FILLER_126_1287
*19264 FILLER_126_1289
*19265 FILLER_126_1291
*19266 FILLER_126_1299
*19267 FILLER_126_1307
*19090 FILLER_126_131
*19268 FILLER_126_1315
*19269 FILLER_126_1323
*19270 FILLER_126_1331
*19271 FILLER_126_1339
*19272 FILLER_126_1347
*19273 FILLER_126_1349
*19274 FILLER_126_1351
*19275 FILLER_126_1359
*19276 FILLER_126_1367
*19277 FILLER_126_1375
*19278 FILLER_126_1383
*19091 FILLER_126_139
*19279 FILLER_126_1391
*19280 FILLER_126_1399
*19281 FILLER_126_1407
*19282 FILLER_126_1409
*19283 FILLER_126_1411
*19284 FILLER_126_1419
*19285 FILLER_126_1427
*19286 FILLER_126_1435
*19287 FILLER_126_1443
*19288 FILLER_126_1451
*19289 FILLER_126_1459
*19290 FILLER_126_1467
*19291 FILLER_126_1469
*19092 FILLER_126_147
*19292 FILLER_126_1471
*19293 FILLER_126_1479
*19294 FILLER_126_1487
*19093 FILLER_126_149
*19295 FILLER_126_1495
*19296 FILLER_126_1503
*19094 FILLER_126_151
*19297 FILLER_126_1511
*19298 FILLER_126_1519
*19299 FILLER_126_1527
*19300 FILLER_126_1529
*19301 FILLER_126_1531
*19302 FILLER_126_1539
*19303 FILLER_126_1547
*19304 FILLER_126_1555
*19305 FILLER_126_1563
*19306 FILLER_126_1571
*19307 FILLER_126_1579
*19308 FILLER_126_1587
*19309 FILLER_126_1589
*19095 FILLER_126_159
*19310 FILLER_126_1591
*19311 FILLER_126_1599
*19073 FILLER_126_16
*19312 FILLER_126_1607
*19313 FILLER_126_1615
*19314 FILLER_126_1623
*19315 FILLER_126_1631
*19316 FILLER_126_1639
*19317 FILLER_126_1647
*19318 FILLER_126_1649
*19319 FILLER_126_1651
*19320 FILLER_126_1659
*19321 FILLER_126_1667
*19096 FILLER_126_167
*19322 FILLER_126_1675
*19323 FILLER_126_1683
*19324 FILLER_126_1691
*19325 FILLER_126_1699
*19326 FILLER_126_1707
*19327 FILLER_126_1709
*19328 FILLER_126_1711
*19329 FILLER_126_1719
*19330 FILLER_126_1727
*19331 FILLER_126_1735
*19332 FILLER_126_1743
*19097 FILLER_126_175
*19333 FILLER_126_1751
*19334 FILLER_126_1759
*19335 FILLER_126_1767
*19336 FILLER_126_1769
*19337 FILLER_126_1771
*19338 FILLER_126_1779
*19339 FILLER_126_1787
*19340 FILLER_126_1795
*19341 FILLER_126_1803
*19342 FILLER_126_1811
*19343 FILLER_126_1819
*19344 FILLER_126_1827
*19345 FILLER_126_1829
*19098 FILLER_126_183
*19346 FILLER_126_1831
*19347 FILLER_126_1839
*19348 FILLER_126_1847
*19349 FILLER_126_1855
*19350 FILLER_126_1863
*19351 FILLER_126_1871
*19352 FILLER_126_1879
*19353 FILLER_126_1887
*19354 FILLER_126_1889
*19355 FILLER_126_1891
*19356 FILLER_126_1899
*19357 FILLER_126_1907
*19099 FILLER_126_191
*19358 FILLER_126_1915
*19359 FILLER_126_1923
*19360 FILLER_126_1931
*19361 FILLER_126_1939
*19362 FILLER_126_1947
*19363 FILLER_126_1949
*19364 FILLER_126_1951
*19365 FILLER_126_1959
*19366 FILLER_126_1967
*19367 FILLER_126_1975
*19368 FILLER_126_1983
*19100 FILLER_126_199
*19369 FILLER_126_1991
*19370 FILLER_126_1999
*19371 FILLER_126_2007
*19372 FILLER_126_2009
*19373 FILLER_126_2011
*19374 FILLER_126_2019
*19375 FILLER_126_2027
*19376 FILLER_126_2035
*19377 FILLER_126_2043
*19378 FILLER_126_2051
*19379 FILLER_126_2059
*19380 FILLER_126_2067
*19381 FILLER_126_2069
*19101 FILLER_126_207
*19382 FILLER_126_2071
*19383 FILLER_126_2079
*19384 FILLER_126_2087
*19102 FILLER_126_209
*19385 FILLER_126_2095
*19386 FILLER_126_2103
*19103 FILLER_126_211
*19387 FILLER_126_2111
*19388 FILLER_126_2119
*19389 FILLER_126_2127
*19390 FILLER_126_2129
*19104 FILLER_126_219
*19105 FILLER_126_227
*19106 FILLER_126_235
*19074 FILLER_126_24
*19107 FILLER_126_243
*19108 FILLER_126_251
*19109 FILLER_126_259
*19110 FILLER_126_267
*19111 FILLER_126_269
*19112 FILLER_126_271
*19113 FILLER_126_279
*19075 FILLER_126_28
*19114 FILLER_126_287
*19115 FILLER_126_295
*19116 FILLER_126_303
*19076 FILLER_126_31
*19117 FILLER_126_311
*19118 FILLER_126_319
*19119 FILLER_126_327
*19120 FILLER_126_329
*19121 FILLER_126_331
*19122 FILLER_126_339
*19123 FILLER_126_347
*19124 FILLER_126_355
*19125 FILLER_126_363
*19126 FILLER_126_371
*19127 FILLER_126_379
*19128 FILLER_126_387
*19129 FILLER_126_389
*19077 FILLER_126_39
*19130 FILLER_126_391
*19131 FILLER_126_399
*19132 FILLER_126_407
*19133 FILLER_126_415
*19134 FILLER_126_423
*19135 FILLER_126_431
*19136 FILLER_126_439
*19137 FILLER_126_447
*19138 FILLER_126_449
*19139 FILLER_126_451
*19140 FILLER_126_459
*19141 FILLER_126_467
*19078 FILLER_126_47
*19142 FILLER_126_475
*19143 FILLER_126_483
*19144 FILLER_126_491
*19145 FILLER_126_499
*19146 FILLER_126_507
*19147 FILLER_126_509
*19148 FILLER_126_511
*19149 FILLER_126_519
*19150 FILLER_126_527
*19151 FILLER_126_535
*19152 FILLER_126_543
*19079 FILLER_126_55
*19153 FILLER_126_551
*19154 FILLER_126_559
*19155 FILLER_126_567
*19156 FILLER_126_569
*19157 FILLER_126_571
*19158 FILLER_126_579
*19159 FILLER_126_587
*19160 FILLER_126_595
*19161 FILLER_126_603
*19162 FILLER_126_611
*19163 FILLER_126_619
*19164 FILLER_126_627
*19165 FILLER_126_629
*19080 FILLER_126_63
*19166 FILLER_126_631
*19167 FILLER_126_639
*19168 FILLER_126_647
*19169 FILLER_126_655
*19170 FILLER_126_663
*19171 FILLER_126_671
*19172 FILLER_126_679
*19173 FILLER_126_687
*19174 FILLER_126_689
*19175 FILLER_126_691
*19176 FILLER_126_699
*19177 FILLER_126_707
*19081 FILLER_126_71
*19178 FILLER_126_715
*19179 FILLER_126_723
*19180 FILLER_126_731
*19181 FILLER_126_739
*19182 FILLER_126_747
*19183 FILLER_126_749
*19184 FILLER_126_751
*19185 FILLER_126_759
*19186 FILLER_126_767
*19187 FILLER_126_775
*19188 FILLER_126_783
*19082 FILLER_126_79
*19189 FILLER_126_791
*19190 FILLER_126_799
*19072 FILLER_126_8
*19191 FILLER_126_807
*19192 FILLER_126_809
*19193 FILLER_126_811
*19194 FILLER_126_819
*19195 FILLER_126_827
*19196 FILLER_126_835
*19197 FILLER_126_843
*19198 FILLER_126_851
*19199 FILLER_126_859
*19200 FILLER_126_867
*19201 FILLER_126_869
*19083 FILLER_126_87
*19202 FILLER_126_871
*19203 FILLER_126_879
*19204 FILLER_126_887
*19084 FILLER_126_89
*19205 FILLER_126_895
*19206 FILLER_126_903
*19085 FILLER_126_91
*19207 FILLER_126_911
*19208 FILLER_126_919
*19209 FILLER_126_927
*19210 FILLER_126_929
*19211 FILLER_126_931
*19212 FILLER_126_939
*19213 FILLER_126_947
*19214 FILLER_126_955
*19215 FILLER_126_963
*19216 FILLER_126_971
*19217 FILLER_126_979
*19218 FILLER_126_987
*19219 FILLER_126_989
*19086 FILLER_126_99
*19220 FILLER_126_991
*19221 FILLER_126_999
*19391 FILLER_127_0
*19539 FILLER_127_1001
*19540 FILLER_127_1009
*19404 FILLER_127_101
*19541 FILLER_127_1017
*19542 FILLER_127_1019
*19543 FILLER_127_1021
*19544 FILLER_127_1029
*19545 FILLER_127_1037
*19546 FILLER_127_1045
*19547 FILLER_127_1053
*19548 FILLER_127_1061
*19549 FILLER_127_1069
*19550 FILLER_127_1077
*19551 FILLER_127_1079
*19552 FILLER_127_1081
*19553 FILLER_127_1089
*19405 FILLER_127_109
*19554 FILLER_127_1097
*19555 FILLER_127_1105
*19556 FILLER_127_1113
*19557 FILLER_127_1121
*19558 FILLER_127_1129
*19559 FILLER_127_1137
*19560 FILLER_127_1139
*19561 FILLER_127_1141
*19562 FILLER_127_1149
*19563 FILLER_127_1157
*19564 FILLER_127_1165
*19406 FILLER_127_117
*19565 FILLER_127_1173
*19566 FILLER_127_1181
*19567 FILLER_127_1189
*19407 FILLER_127_119
*19568 FILLER_127_1197
*19569 FILLER_127_1199
*19570 FILLER_127_1201
*19571 FILLER_127_1209
*19408 FILLER_127_121
*19572 FILLER_127_1217
*19573 FILLER_127_1225
*19574 FILLER_127_1233
*19575 FILLER_127_1241
*19576 FILLER_127_1249
*19577 FILLER_127_1257
*19578 FILLER_127_1259
*19579 FILLER_127_1261
*19580 FILLER_127_1269
*19581 FILLER_127_1277
*19582 FILLER_127_1285
*19409 FILLER_127_129
*19583 FILLER_127_1293
*19584 FILLER_127_1301
*19585 FILLER_127_1309
*19586 FILLER_127_1317
*19587 FILLER_127_1319
*19588 FILLER_127_1321
*19589 FILLER_127_1329
*19590 FILLER_127_1337
*19591 FILLER_127_1345
*19592 FILLER_127_1353
*19593 FILLER_127_1361
*19594 FILLER_127_1369
*19410 FILLER_127_137
*19595 FILLER_127_1377
*19596 FILLER_127_1379
*19597 FILLER_127_1381
*19598 FILLER_127_1389
*19599 FILLER_127_1397
*19600 FILLER_127_1405
*19601 FILLER_127_1413
*19602 FILLER_127_1421
*19603 FILLER_127_1429
*19604 FILLER_127_1437
*19605 FILLER_127_1439
*19606 FILLER_127_1441
*19607 FILLER_127_1449
*19411 FILLER_127_145
*19608 FILLER_127_1457
*19609 FILLER_127_1465
*19610 FILLER_127_1473
*19611 FILLER_127_1481
*19612 FILLER_127_1489
*19613 FILLER_127_1497
*19614 FILLER_127_1499
*19615 FILLER_127_1501
*19616 FILLER_127_1509
*19617 FILLER_127_1517
*19618 FILLER_127_1525
*19412 FILLER_127_153
*19619 FILLER_127_1533
*19620 FILLER_127_1541
*19621 FILLER_127_1549
*19622 FILLER_127_1557
*19623 FILLER_127_1559
*19624 FILLER_127_1561
*19625 FILLER_127_1569
*19626 FILLER_127_1577
*19627 FILLER_127_1585
*19628 FILLER_127_1593
*19393 FILLER_127_16
*19629 FILLER_127_1601
*19630 FILLER_127_1609
*19413 FILLER_127_161
*19631 FILLER_127_1617
*19632 FILLER_127_1619
*19633 FILLER_127_1621
*19634 FILLER_127_1629
*19635 FILLER_127_1637
*19636 FILLER_127_1645
*19637 FILLER_127_1653
*19638 FILLER_127_1661
*19639 FILLER_127_1669
*19640 FILLER_127_1677
*19641 FILLER_127_1679
*19642 FILLER_127_1681
*19643 FILLER_127_1689
*19414 FILLER_127_169
*19644 FILLER_127_1697
*19645 FILLER_127_1705
*19646 FILLER_127_1713
*19647 FILLER_127_1721
*19648 FILLER_127_1729
*19649 FILLER_127_1737
*19650 FILLER_127_1739
*19651 FILLER_127_1741
*19652 FILLER_127_1749
*19653 FILLER_127_1757
*19654 FILLER_127_1765
*19415 FILLER_127_177
*19655 FILLER_127_1773
*19656 FILLER_127_1781
*19657 FILLER_127_1789
*19416 FILLER_127_179
*19658 FILLER_127_1797
*19659 FILLER_127_1799
*19660 FILLER_127_1801
*19661 FILLER_127_1809
*19417 FILLER_127_181
*19662 FILLER_127_1817
*19663 FILLER_127_1825
*19664 FILLER_127_1833
*19665 FILLER_127_1841
*19666 FILLER_127_1849
*19667 FILLER_127_1857
*19668 FILLER_127_1859
*19669 FILLER_127_1861
*19670 FILLER_127_1869
*19671 FILLER_127_1877
*19672 FILLER_127_1885
*19418 FILLER_127_189
*19673 FILLER_127_1893
*19674 FILLER_127_1901
*19675 FILLER_127_1909
*19676 FILLER_127_1917
*19677 FILLER_127_1919
*19678 FILLER_127_1921
*19679 FILLER_127_1929
*19680 FILLER_127_1937
*19681 FILLER_127_1945
*19682 FILLER_127_1953
*19683 FILLER_127_1961
*19684 FILLER_127_1969
*19419 FILLER_127_197
*19685 FILLER_127_1977
*19686 FILLER_127_1979
*19687 FILLER_127_1981
*19688 FILLER_127_1989
*19689 FILLER_127_1997
*19690 FILLER_127_2005
*19691 FILLER_127_2013
*19692 FILLER_127_2021
*19693 FILLER_127_2029
*19694 FILLER_127_2037
*19695 FILLER_127_2039
*19696 FILLER_127_2041
*19697 FILLER_127_2049
*19420 FILLER_127_205
*19698 FILLER_127_2057
*19699 FILLER_127_2065
*19700 FILLER_127_2073
*19701 FILLER_127_2081
*19702 FILLER_127_2089
*19703 FILLER_127_2097
*19704 FILLER_127_2099
*19705 FILLER_127_2101
*19706 FILLER_127_2109
*19707 FILLER_127_2117
*19708 FILLER_127_2125
*19709 FILLER_127_2129
*19421 FILLER_127_213
*19422 FILLER_127_221
*19423 FILLER_127_229
*19424 FILLER_127_237
*19425 FILLER_127_239
*19394 FILLER_127_24
*19426 FILLER_127_241
*19427 FILLER_127_249
*19428 FILLER_127_257
*19429 FILLER_127_265
*19430 FILLER_127_273
*19431 FILLER_127_281
*19432 FILLER_127_289
*19433 FILLER_127_297
*19434 FILLER_127_299
*19435 FILLER_127_301
*19436 FILLER_127_309
*19437 FILLER_127_317
*19395 FILLER_127_32
*19438 FILLER_127_325
*19439 FILLER_127_333
*19440 FILLER_127_341
*19441 FILLER_127_349
*19442 FILLER_127_357
*19443 FILLER_127_359
*19444 FILLER_127_361
*19445 FILLER_127_369
*19446 FILLER_127_377
*19447 FILLER_127_385
*19448 FILLER_127_393
*19396 FILLER_127_40
*19449 FILLER_127_401
*19450 FILLER_127_409
*19451 FILLER_127_417
*19452 FILLER_127_419
*19453 FILLER_127_421
*19454 FILLER_127_429
*19455 FILLER_127_437
*19456 FILLER_127_445
*19457 FILLER_127_453
*19458 FILLER_127_461
*19459 FILLER_127_469
*19460 FILLER_127_477
*19461 FILLER_127_479
*19397 FILLER_127_48
*19462 FILLER_127_481
*19463 FILLER_127_489
*19464 FILLER_127_497
*19465 FILLER_127_505
*19466 FILLER_127_513
*19467 FILLER_127_521
*19468 FILLER_127_529
*19469 FILLER_127_537
*19470 FILLER_127_539
*19471 FILLER_127_541
*19472 FILLER_127_549
*19473 FILLER_127_557
*19398 FILLER_127_56
*19474 FILLER_127_565
*19475 FILLER_127_573
*19476 FILLER_127_581
*19477 FILLER_127_589
*19478 FILLER_127_597
*19479 FILLER_127_599
*19480 FILLER_127_601
*19481 FILLER_127_609
*19399 FILLER_127_61
*19482 FILLER_127_617
*19483 FILLER_127_625
*19484 FILLER_127_633
*19485 FILLER_127_641
*19486 FILLER_127_649
*19487 FILLER_127_657
*19488 FILLER_127_659
*19489 FILLER_127_661
*19490 FILLER_127_669
*19491 FILLER_127_677
*19492 FILLER_127_685
*19400 FILLER_127_69
*19493 FILLER_127_693
*19494 FILLER_127_701
*19495 FILLER_127_709
*19496 FILLER_127_717
*19497 FILLER_127_719
*19498 FILLER_127_721
*19499 FILLER_127_729
*19500 FILLER_127_737
*19501 FILLER_127_745
*19502 FILLER_127_753
*19503 FILLER_127_761
*19504 FILLER_127_769
*19401 FILLER_127_77
*19505 FILLER_127_777
*19506 FILLER_127_779
*19507 FILLER_127_781
*19508 FILLER_127_789
*19509 FILLER_127_797
*19392 FILLER_127_8
*19510 FILLER_127_805
*19511 FILLER_127_813
*19512 FILLER_127_821
*19513 FILLER_127_829
*19514 FILLER_127_837
*19515 FILLER_127_839
*19516 FILLER_127_841
*19517 FILLER_127_849
*19402 FILLER_127_85
*19518 FILLER_127_857
*19519 FILLER_127_865
*19520 FILLER_127_873
*19521 FILLER_127_881
*19522 FILLER_127_889
*19523 FILLER_127_897
*19524 FILLER_127_899
*19525 FILLER_127_901
*19526 FILLER_127_909
*19527 FILLER_127_917
*19528 FILLER_127_925
*19403 FILLER_127_93
*19529 FILLER_127_933
*19530 FILLER_127_941
*19531 FILLER_127_949
*19532 FILLER_127_957
*19533 FILLER_127_959
*19534 FILLER_127_961
*19535 FILLER_127_969
*19536 FILLER_127_977
*19537 FILLER_127_985
*19538 FILLER_127_993
*19710 FILLER_128_0
*19861 FILLER_128_1007
*19862 FILLER_128_1015
*19863 FILLER_128_1023
*19864 FILLER_128_1031
*19865 FILLER_128_1039
*19866 FILLER_128_1047
*19867 FILLER_128_1049
*19868 FILLER_128_1051
*19869 FILLER_128_1059
*19870 FILLER_128_1067
*19726 FILLER_128_107
*19871 FILLER_128_1075
*19872 FILLER_128_1083
*19873 FILLER_128_1091
*19874 FILLER_128_1099
*19875 FILLER_128_1107
*19876 FILLER_128_1109
*19877 FILLER_128_1111
*19878 FILLER_128_1119
*19879 FILLER_128_1127
*19880 FILLER_128_1135
*19881 FILLER_128_1143
*19727 FILLER_128_115
*19882 FILLER_128_1151
*19883 FILLER_128_1159
*19884 FILLER_128_1167
*19885 FILLER_128_1169
*19886 FILLER_128_1171
*19887 FILLER_128_1179
*19888 FILLER_128_1187
*19889 FILLER_128_1195
*19890 FILLER_128_1203
*19891 FILLER_128_1211
*19892 FILLER_128_1219
*19893 FILLER_128_1227
*19894 FILLER_128_1229
*19728 FILLER_128_123
*19895 FILLER_128_1231
*19896 FILLER_128_1239
*19897 FILLER_128_1247
*19898 FILLER_128_1255
*19899 FILLER_128_1263
*19900 FILLER_128_1271
*19901 FILLER_128_1279
*19902 FILLER_128_1287
*19903 FILLER_128_1289
*19904 FILLER_128_1291
*19905 FILLER_128_1299
*19906 FILLER_128_1307
*19729 FILLER_128_131
*19907 FILLER_128_1315
*19908 FILLER_128_1323
*19909 FILLER_128_1331
*19910 FILLER_128_1339
*19911 FILLER_128_1347
*19912 FILLER_128_1349
*19913 FILLER_128_1351
*19914 FILLER_128_1359
*19915 FILLER_128_1367
*19916 FILLER_128_1375
*19917 FILLER_128_1383
*19730 FILLER_128_139
*19918 FILLER_128_1391
*19919 FILLER_128_1399
*19920 FILLER_128_1407
*19921 FILLER_128_1409
*19922 FILLER_128_1411
*19923 FILLER_128_1419
*19924 FILLER_128_1427
*19925 FILLER_128_1435
*19926 FILLER_128_1443
*19927 FILLER_128_1451
*19928 FILLER_128_1459
*19929 FILLER_128_1467
*19930 FILLER_128_1469
*19731 FILLER_128_147
*19931 FILLER_128_1471
*19932 FILLER_128_1479
*19933 FILLER_128_1487
*19732 FILLER_128_149
*19934 FILLER_128_1495
*19935 FILLER_128_1503
*19733 FILLER_128_151
*19936 FILLER_128_1511
*19937 FILLER_128_1519
*19938 FILLER_128_1527
*19939 FILLER_128_1529
*19940 FILLER_128_1531
*19941 FILLER_128_1539
*19942 FILLER_128_1547
*19943 FILLER_128_1555
*19944 FILLER_128_1563
*19945 FILLER_128_1571
*19946 FILLER_128_1579
*19947 FILLER_128_1587
*19948 FILLER_128_1589
*19734 FILLER_128_159
*19949 FILLER_128_1591
*19950 FILLER_128_1599
*19712 FILLER_128_16
*19951 FILLER_128_1607
*19952 FILLER_128_1615
*19953 FILLER_128_1623
*19954 FILLER_128_1631
*19955 FILLER_128_1639
*19956 FILLER_128_1647
*19957 FILLER_128_1649
*19958 FILLER_128_1651
*19959 FILLER_128_1659
*19960 FILLER_128_1667
*19735 FILLER_128_167
*19961 FILLER_128_1675
*19962 FILLER_128_1683
*19963 FILLER_128_1691
*19964 FILLER_128_1699
*19965 FILLER_128_1707
*19966 FILLER_128_1709
*19967 FILLER_128_1711
*19968 FILLER_128_1719
*19969 FILLER_128_1727
*19970 FILLER_128_1735
*19971 FILLER_128_1743
*19736 FILLER_128_175
*19972 FILLER_128_1751
*19973 FILLER_128_1759
*19974 FILLER_128_1767
*19975 FILLER_128_1769
*19976 FILLER_128_1771
*19977 FILLER_128_1779
*19978 FILLER_128_1787
*19979 FILLER_128_1795
*19980 FILLER_128_1803
*19981 FILLER_128_1811
*19982 FILLER_128_1819
*19983 FILLER_128_1827
*19984 FILLER_128_1829
*19737 FILLER_128_183
*19985 FILLER_128_1831
*19986 FILLER_128_1839
*19987 FILLER_128_1847
*19988 FILLER_128_1855
*19989 FILLER_128_1863
*19990 FILLER_128_1871
*19991 FILLER_128_1879
*19992 FILLER_128_1887
*19993 FILLER_128_1889
*19994 FILLER_128_1891
*19995 FILLER_128_1899
*19996 FILLER_128_1907
*19738 FILLER_128_191
*19997 FILLER_128_1915
*19998 FILLER_128_1923
*19999 FILLER_128_1931
*20000 FILLER_128_1939
*20001 FILLER_128_1947
*20002 FILLER_128_1949
*20003 FILLER_128_1951
*20004 FILLER_128_1959
*20005 FILLER_128_1967
*20006 FILLER_128_1975
*20007 FILLER_128_1983
*19739 FILLER_128_199
*20008 FILLER_128_1991
*20009 FILLER_128_1999
*20010 FILLER_128_2007
*20011 FILLER_128_2009
*20012 FILLER_128_2011
*20013 FILLER_128_2019
*20014 FILLER_128_2027
*20015 FILLER_128_2035
*20016 FILLER_128_2043
*20017 FILLER_128_2051
*20018 FILLER_128_2059
*20019 FILLER_128_2067
*20020 FILLER_128_2069
*19740 FILLER_128_207
*20021 FILLER_128_2071
*20022 FILLER_128_2079
*20023 FILLER_128_2087
*19741 FILLER_128_209
*20024 FILLER_128_2095
*20025 FILLER_128_2103
*19742 FILLER_128_211
*20026 FILLER_128_2111
*20027 FILLER_128_2119
*20028 FILLER_128_2127
*20029 FILLER_128_2129
*19743 FILLER_128_219
*19744 FILLER_128_227
*19745 FILLER_128_235
*19713 FILLER_128_24
*19746 FILLER_128_243
*19747 FILLER_128_251
*19748 FILLER_128_259
*19749 FILLER_128_267
*19750 FILLER_128_269
*19751 FILLER_128_271
*19752 FILLER_128_279
*19714 FILLER_128_28
*19753 FILLER_128_287
*19754 FILLER_128_295
*19755 FILLER_128_303
*19715 FILLER_128_31
*19756 FILLER_128_311
*19757 FILLER_128_319
*19758 FILLER_128_327
*19759 FILLER_128_329
*19760 FILLER_128_331
*19761 FILLER_128_339
*19762 FILLER_128_347
*19763 FILLER_128_355
*19764 FILLER_128_363
*19765 FILLER_128_371
*19766 FILLER_128_379
*19767 FILLER_128_387
*19768 FILLER_128_389
*19716 FILLER_128_39
*19769 FILLER_128_391
*19770 FILLER_128_399
*19771 FILLER_128_407
*19772 FILLER_128_415
*19773 FILLER_128_423
*19774 FILLER_128_431
*19775 FILLER_128_439
*19776 FILLER_128_447
*19777 FILLER_128_449
*19778 FILLER_128_451
*19779 FILLER_128_459
*19780 FILLER_128_467
*19717 FILLER_128_47
*19781 FILLER_128_475
*19782 FILLER_128_483
*19783 FILLER_128_491
*19784 FILLER_128_499
*19785 FILLER_128_507
*19786 FILLER_128_509
*19787 FILLER_128_511
*19788 FILLER_128_519
*19789 FILLER_128_527
*19790 FILLER_128_535
*19791 FILLER_128_543
*19718 FILLER_128_55
*19792 FILLER_128_551
*19793 FILLER_128_559
*19794 FILLER_128_567
*19795 FILLER_128_569
*19796 FILLER_128_571
*19797 FILLER_128_579
*19798 FILLER_128_587
*19799 FILLER_128_595
*19800 FILLER_128_603
*19801 FILLER_128_611
*19802 FILLER_128_623
*19803 FILLER_128_627
*19804 FILLER_128_629
*19719 FILLER_128_63
*19805 FILLER_128_631
*19806 FILLER_128_639
*19807 FILLER_128_647
*19808 FILLER_128_655
*19809 FILLER_128_663
*19810 FILLER_128_671
*19811 FILLER_128_679
*19812 FILLER_128_687
*19813 FILLER_128_689
*19814 FILLER_128_691
*19815 FILLER_128_699
*19816 FILLER_128_707
*19720 FILLER_128_71
*19817 FILLER_128_715
*19818 FILLER_128_723
*19819 FILLER_128_731
*19820 FILLER_128_739
*19821 FILLER_128_747
*19822 FILLER_128_749
*19823 FILLER_128_751
*19824 FILLER_128_759
*19825 FILLER_128_767
*19826 FILLER_128_775
*19827 FILLER_128_783
*19721 FILLER_128_79
*19828 FILLER_128_791
*19829 FILLER_128_799
*19711 FILLER_128_8
*19830 FILLER_128_807
*19831 FILLER_128_809
*19832 FILLER_128_811
*19833 FILLER_128_819
*19834 FILLER_128_827
*19835 FILLER_128_835
*19836 FILLER_128_843
*19837 FILLER_128_851
*19838 FILLER_128_859
*19839 FILLER_128_867
*19840 FILLER_128_869
*19722 FILLER_128_87
*19841 FILLER_128_871
*19842 FILLER_128_879
*19843 FILLER_128_887
*19723 FILLER_128_89
*19844 FILLER_128_895
*19845 FILLER_128_903
*19724 FILLER_128_91
*19846 FILLER_128_911
*19847 FILLER_128_919
*19848 FILLER_128_927
*19849 FILLER_128_929
*19850 FILLER_128_931
*19851 FILLER_128_939
*19852 FILLER_128_947
*19853 FILLER_128_955
*19854 FILLER_128_963
*19855 FILLER_128_971
*19856 FILLER_128_979
*19857 FILLER_128_987
*19858 FILLER_128_989
*19725 FILLER_128_99
*19859 FILLER_128_991
*19860 FILLER_128_999
*20030 FILLER_129_0
*20178 FILLER_129_1001
*20179 FILLER_129_1009
*20043 FILLER_129_101
*20180 FILLER_129_1017
*20181 FILLER_129_1019
*20182 FILLER_129_1021
*20183 FILLER_129_1029
*20184 FILLER_129_1037
*20185 FILLER_129_1045
*20186 FILLER_129_1053
*20187 FILLER_129_1061
*20188 FILLER_129_1069
*20189 FILLER_129_1077
*20190 FILLER_129_1079
*20191 FILLER_129_1081
*20192 FILLER_129_1089
*20044 FILLER_129_109
*20193 FILLER_129_1097
*20194 FILLER_129_1105
*20195 FILLER_129_1113
*20196 FILLER_129_1121
*20197 FILLER_129_1129
*20198 FILLER_129_1137
*20199 FILLER_129_1139
*20200 FILLER_129_1141
*20201 FILLER_129_1149
*20202 FILLER_129_1157
*20203 FILLER_129_1165
*20045 FILLER_129_117
*20204 FILLER_129_1173
*20205 FILLER_129_1181
*20206 FILLER_129_1189
*20046 FILLER_129_119
*20207 FILLER_129_1197
*20208 FILLER_129_1199
*20209 FILLER_129_1201
*20210 FILLER_129_1209
*20047 FILLER_129_121
*20211 FILLER_129_1217
*20212 FILLER_129_1225
*20213 FILLER_129_1233
*20214 FILLER_129_1241
*20215 FILLER_129_1249
*20216 FILLER_129_1257
*20217 FILLER_129_1259
*20218 FILLER_129_1261
*20219 FILLER_129_1269
*20220 FILLER_129_1277
*20221 FILLER_129_1285
*20048 FILLER_129_129
*20222 FILLER_129_1293
*20223 FILLER_129_1301
*20224 FILLER_129_1309
*20225 FILLER_129_1317
*20226 FILLER_129_1319
*20227 FILLER_129_1321
*20228 FILLER_129_1329
*20229 FILLER_129_1337
*20230 FILLER_129_1345
*20231 FILLER_129_1353
*20232 FILLER_129_1361
*20233 FILLER_129_1369
*20049 FILLER_129_137
*20234 FILLER_129_1377
*20235 FILLER_129_1379
*20236 FILLER_129_1381
*20237 FILLER_129_1389
*20238 FILLER_129_1397
*20239 FILLER_129_1405
*20240 FILLER_129_1413
*20241 FILLER_129_1421
*20242 FILLER_129_1429
*20243 FILLER_129_1437
*20244 FILLER_129_1439
*20245 FILLER_129_1441
*20246 FILLER_129_1449
*20050 FILLER_129_145
*20247 FILLER_129_1457
*20248 FILLER_129_1465
*20249 FILLER_129_1473
*20250 FILLER_129_1481
*20251 FILLER_129_1489
*20252 FILLER_129_1497
*20253 FILLER_129_1499
*20254 FILLER_129_1501
*20255 FILLER_129_1509
*20256 FILLER_129_1517
*20257 FILLER_129_1525
*20051 FILLER_129_153
*20258 FILLER_129_1533
*20259 FILLER_129_1541
*20260 FILLER_129_1549
*20261 FILLER_129_1557
*20262 FILLER_129_1559
*20263 FILLER_129_1561
*20264 FILLER_129_1569
*20265 FILLER_129_1577
*20266 FILLER_129_1585
*20267 FILLER_129_1593
*20032 FILLER_129_16
*20268 FILLER_129_1601
*20269 FILLER_129_1609
*20052 FILLER_129_161
*20270 FILLER_129_1617
*20271 FILLER_129_1619
*20272 FILLER_129_1621
*20273 FILLER_129_1629
*20274 FILLER_129_1637
*20275 FILLER_129_1645
*20276 FILLER_129_1653
*20277 FILLER_129_1661
*20278 FILLER_129_1669
*20279 FILLER_129_1677
*20280 FILLER_129_1679
*20281 FILLER_129_1681
*20282 FILLER_129_1689
*20053 FILLER_129_169
*20283 FILLER_129_1697
*20284 FILLER_129_1705
*20285 FILLER_129_1713
*20286 FILLER_129_1721
*20287 FILLER_129_1729
*20288 FILLER_129_1737
*20289 FILLER_129_1739
*20290 FILLER_129_1741
*20291 FILLER_129_1749
*20292 FILLER_129_1757
*20293 FILLER_129_1765
*20054 FILLER_129_177
*20294 FILLER_129_1773
*20295 FILLER_129_1781
*20296 FILLER_129_1789
*20055 FILLER_129_179
*20297 FILLER_129_1797
*20298 FILLER_129_1799
*20299 FILLER_129_1801
*20300 FILLER_129_1809
*20056 FILLER_129_181
*20301 FILLER_129_1817
*20302 FILLER_129_1825
*20303 FILLER_129_1833
*20304 FILLER_129_1841
*20305 FILLER_129_1849
*20306 FILLER_129_1857
*20307 FILLER_129_1859
*20308 FILLER_129_1861
*20309 FILLER_129_1869
*20310 FILLER_129_1877
*20311 FILLER_129_1885
*20057 FILLER_129_189
*20312 FILLER_129_1893
*20313 FILLER_129_1901
*20314 FILLER_129_1909
*20315 FILLER_129_1917
*20316 FILLER_129_1919
*20317 FILLER_129_1921
*20318 FILLER_129_1929
*20319 FILLER_129_1937
*20320 FILLER_129_1945
*20321 FILLER_129_1953
*20322 FILLER_129_1961
*20323 FILLER_129_1969
*20058 FILLER_129_197
*20324 FILLER_129_1977
*20325 FILLER_129_1979
*20326 FILLER_129_1981
*20327 FILLER_129_1989
*20328 FILLER_129_1997
*20329 FILLER_129_2005
*20330 FILLER_129_2013
*20331 FILLER_129_2021
*20332 FILLER_129_2029
*20333 FILLER_129_2037
*20334 FILLER_129_2039
*20335 FILLER_129_2041
*20336 FILLER_129_2049
*20059 FILLER_129_205
*20337 FILLER_129_2057
*20338 FILLER_129_2065
*20339 FILLER_129_2073
*20340 FILLER_129_2081
*20341 FILLER_129_2089
*20342 FILLER_129_2097
*20343 FILLER_129_2099
*20344 FILLER_129_2101
*20345 FILLER_129_2109
*20346 FILLER_129_2117
*20347 FILLER_129_2125
*20348 FILLER_129_2129
*20060 FILLER_129_213
*20061 FILLER_129_221
*20062 FILLER_129_229
*20063 FILLER_129_237
*20064 FILLER_129_239
*20033 FILLER_129_24
*20065 FILLER_129_241
*20066 FILLER_129_249
*20067 FILLER_129_257
*20068 FILLER_129_265
*20069 FILLER_129_273
*20070 FILLER_129_281
*20071 FILLER_129_289
*20072 FILLER_129_297
*20073 FILLER_129_299
*20074 FILLER_129_301
*20075 FILLER_129_309
*20076 FILLER_129_317
*20034 FILLER_129_32
*20077 FILLER_129_325
*20078 FILLER_129_333
*20079 FILLER_129_341
*20080 FILLER_129_349
*20081 FILLER_129_357
*20082 FILLER_129_359
*20083 FILLER_129_361
*20084 FILLER_129_369
*20085 FILLER_129_377
*20086 FILLER_129_385
*20087 FILLER_129_393
*20035 FILLER_129_40
*20088 FILLER_129_401
*20089 FILLER_129_409
*20090 FILLER_129_417
*20091 FILLER_129_419
*20092 FILLER_129_421
*20093 FILLER_129_429
*20094 FILLER_129_437
*20095 FILLER_129_445
*20096 FILLER_129_453
*20097 FILLER_129_461
*20098 FILLER_129_469
*20099 FILLER_129_477
*20100 FILLER_129_479
*20036 FILLER_129_48
*20101 FILLER_129_481
*20102 FILLER_129_489
*20103 FILLER_129_497
*20104 FILLER_129_505
*20105 FILLER_129_513
*20106 FILLER_129_521
*20107 FILLER_129_529
*20108 FILLER_129_537
*20109 FILLER_129_539
*20110 FILLER_129_541
*20111 FILLER_129_549
*20112 FILLER_129_557
*20037 FILLER_129_56
*20113 FILLER_129_565
*20114 FILLER_129_573
*20115 FILLER_129_581
*20116 FILLER_129_589
*20117 FILLER_129_597
*20118 FILLER_129_599
*20119 FILLER_129_601
*20120 FILLER_129_609
*20038 FILLER_129_61
*20121 FILLER_129_617
*20122 FILLER_129_625
*20123 FILLER_129_633
*20124 FILLER_129_641
*20125 FILLER_129_649
*20126 FILLER_129_657
*20127 FILLER_129_659
*20128 FILLER_129_661
*20129 FILLER_129_669
*20130 FILLER_129_677
*20131 FILLER_129_685
*20039 FILLER_129_69
*20132 FILLER_129_693
*20133 FILLER_129_701
*20134 FILLER_129_709
*20135 FILLER_129_717
*20136 FILLER_129_719
*20137 FILLER_129_721
*20138 FILLER_129_729
*20139 FILLER_129_737
*20140 FILLER_129_745
*20141 FILLER_129_753
*20142 FILLER_129_761
*20143 FILLER_129_769
*20040 FILLER_129_77
*20144 FILLER_129_777
*20145 FILLER_129_779
*20146 FILLER_129_781
*20147 FILLER_129_789
*20148 FILLER_129_797
*20031 FILLER_129_8
*20149 FILLER_129_805
*20150 FILLER_129_813
*20151 FILLER_129_821
*20152 FILLER_129_829
*20153 FILLER_129_837
*20154 FILLER_129_839
*20155 FILLER_129_841
*20156 FILLER_129_849
*20041 FILLER_129_85
*20157 FILLER_129_857
*20158 FILLER_129_865
*20159 FILLER_129_873
*20160 FILLER_129_881
*20161 FILLER_129_889
*20162 FILLER_129_897
*20163 FILLER_129_899
*20164 FILLER_129_901
*20165 FILLER_129_909
*20166 FILLER_129_917
*20167 FILLER_129_925
*20042 FILLER_129_93
*20168 FILLER_129_933
*20169 FILLER_129_941
*20170 FILLER_129_949
*20171 FILLER_129_957
*20172 FILLER_129_959
*20173 FILLER_129_961
*20174 FILLER_129_969
*20175 FILLER_129_977
*20176 FILLER_129_985
*20177 FILLER_129_993
*6175 FILLER_12_0
*6181 FILLER_12_1549
*6182 FILLER_12_1557
*6183 FILLER_12_1565
*6184 FILLER_12_1573
*6185 FILLER_12_1577
*6186 FILLER_12_1580
*6187 FILLER_12_1588
*6188 FILLER_12_1596
*6177 FILLER_12_16
*6189 FILLER_12_1604
*6190 FILLER_12_1612
*6191 FILLER_12_1620
*6192 FILLER_12_1628
*6193 FILLER_12_1636
*6194 FILLER_12_1638
*6195 FILLER_12_1640
*6196 FILLER_12_1648
*6197 FILLER_12_1656
*6198 FILLER_12_1664
*6199 FILLER_12_1672
*6200 FILLER_12_1680
*6201 FILLER_12_1688
*6202 FILLER_12_1696
*6203 FILLER_12_1698
*6204 FILLER_12_1700
*6205 FILLER_12_1708
*6206 FILLER_12_1716
*6207 FILLER_12_1724
*6208 FILLER_12_1732
*6209 FILLER_12_1740
*6210 FILLER_12_1748
*6211 FILLER_12_1756
*6212 FILLER_12_1758
*6213 FILLER_12_1760
*6214 FILLER_12_1768
*6215 FILLER_12_1776
*6216 FILLER_12_1784
*6217 FILLER_12_1792
*6218 FILLER_12_1800
*6219 FILLER_12_1808
*6220 FILLER_12_1816
*6221 FILLER_12_1818
*6222 FILLER_12_1820
*6223 FILLER_12_1828
*6224 FILLER_12_1836
*6225 FILLER_12_1844
*6226 FILLER_12_1852
*6227 FILLER_12_1860
*6228 FILLER_12_1868
*6229 FILLER_12_1876
*6230 FILLER_12_1878
*6231 FILLER_12_1880
*6232 FILLER_12_1888
*6233 FILLER_12_1896
*6234 FILLER_12_1904
*6235 FILLER_12_1912
*6236 FILLER_12_1920
*6237 FILLER_12_1928
*6238 FILLER_12_1936
*6239 FILLER_12_1938
*6240 FILLER_12_1940
*6241 FILLER_12_1948
*6242 FILLER_12_1956
*6243 FILLER_12_1964
*6244 FILLER_12_1972
*6245 FILLER_12_1980
*6246 FILLER_12_1988
*6247 FILLER_12_1996
*6248 FILLER_12_1998
*6249 FILLER_12_2000
*6250 FILLER_12_2008
*6251 FILLER_12_2016
*6252 FILLER_12_2024
*6253 FILLER_12_2032
*6254 FILLER_12_2040
*6255 FILLER_12_2048
*6256 FILLER_12_2056
*6257 FILLER_12_2058
*6258 FILLER_12_2060
*6259 FILLER_12_2068
*6260 FILLER_12_2076
*6261 FILLER_12_2084
*6262 FILLER_12_2092
*6263 FILLER_12_2100
*6264 FILLER_12_2108
*6265 FILLER_12_2116
*6266 FILLER_12_2118
*6267 FILLER_12_2120
*6268 FILLER_12_2128
*6178 FILLER_12_24
*6179 FILLER_12_28
*6180 FILLER_12_31
*6176 FILLER_12_8
*20349 FILLER_130_0
*20500 FILLER_130_1007
*20501 FILLER_130_1015
*20502 FILLER_130_1023
*20503 FILLER_130_1031
*20504 FILLER_130_1039
*20505 FILLER_130_1047
*20506 FILLER_130_1049
*20507 FILLER_130_1051
*20508 FILLER_130_1059
*20509 FILLER_130_1067
*20365 FILLER_130_107
*20510 FILLER_130_1075
*20511 FILLER_130_1083
*20512 FILLER_130_1091
*20513 FILLER_130_1099
*20514 FILLER_130_1107
*20515 FILLER_130_1109
*20516 FILLER_130_1111
*20517 FILLER_130_1119
*20518 FILLER_130_1127
*20519 FILLER_130_1135
*20520 FILLER_130_1143
*20366 FILLER_130_115
*20521 FILLER_130_1151
*20522 FILLER_130_1159
*20523 FILLER_130_1167
*20524 FILLER_130_1169
*20525 FILLER_130_1171
*20526 FILLER_130_1179
*20527 FILLER_130_1187
*20528 FILLER_130_1195
*20529 FILLER_130_1203
*20530 FILLER_130_1211
*20531 FILLER_130_1219
*20532 FILLER_130_1227
*20533 FILLER_130_1229
*20367 FILLER_130_123
*20534 FILLER_130_1231
*20535 FILLER_130_1239
*20536 FILLER_130_1247
*20537 FILLER_130_1255
*20538 FILLER_130_1263
*20539 FILLER_130_1271
*20540 FILLER_130_1279
*20541 FILLER_130_1287
*20542 FILLER_130_1289
*20543 FILLER_130_1291
*20544 FILLER_130_1299
*20545 FILLER_130_1307
*20368 FILLER_130_131
*20546 FILLER_130_1315
*20547 FILLER_130_1323
*20548 FILLER_130_1331
*20549 FILLER_130_1339
*20550 FILLER_130_1347
*20551 FILLER_130_1349
*20552 FILLER_130_1351
*20553 FILLER_130_1359
*20554 FILLER_130_1367
*20555 FILLER_130_1375
*20556 FILLER_130_1383
*20369 FILLER_130_139
*20557 FILLER_130_1391
*20558 FILLER_130_1399
*20559 FILLER_130_1407
*20560 FILLER_130_1409
*20561 FILLER_130_1411
*20562 FILLER_130_1419
*20563 FILLER_130_1427
*20564 FILLER_130_1435
*20565 FILLER_130_1443
*20566 FILLER_130_1451
*20567 FILLER_130_1459
*20568 FILLER_130_1467
*20569 FILLER_130_1469
*20370 FILLER_130_147
*20570 FILLER_130_1471
*20571 FILLER_130_1479
*20572 FILLER_130_1487
*20371 FILLER_130_149
*20573 FILLER_130_1495
*20574 FILLER_130_1503
*20372 FILLER_130_151
*20575 FILLER_130_1511
*20576 FILLER_130_1519
*20577 FILLER_130_1527
*20578 FILLER_130_1529
*20579 FILLER_130_1531
*20580 FILLER_130_1539
*20581 FILLER_130_1547
*20582 FILLER_130_1555
*20583 FILLER_130_1563
*20584 FILLER_130_1571
*20585 FILLER_130_1579
*20586 FILLER_130_1587
*20587 FILLER_130_1589
*20373 FILLER_130_159
*20588 FILLER_130_1591
*20589 FILLER_130_1599
*20351 FILLER_130_16
*20590 FILLER_130_1607
*20591 FILLER_130_1615
*20592 FILLER_130_1623
*20593 FILLER_130_1631
*20594 FILLER_130_1639
*20595 FILLER_130_1647
*20596 FILLER_130_1649
*20597 FILLER_130_1651
*20598 FILLER_130_1659
*20599 FILLER_130_1667
*20374 FILLER_130_167
*20600 FILLER_130_1675
*20601 FILLER_130_1683
*20602 FILLER_130_1691
*20603 FILLER_130_1699
*20604 FILLER_130_1707
*20605 FILLER_130_1709
*20606 FILLER_130_1711
*20607 FILLER_130_1719
*20608 FILLER_130_1727
*20609 FILLER_130_1735
*20610 FILLER_130_1743
*20375 FILLER_130_175
*20611 FILLER_130_1751
*20612 FILLER_130_1759
*20613 FILLER_130_1767
*20614 FILLER_130_1769
*20615 FILLER_130_1771
*20616 FILLER_130_1779
*20617 FILLER_130_1787
*20618 FILLER_130_1795
*20619 FILLER_130_1803
*20620 FILLER_130_1811
*20621 FILLER_130_1819
*20622 FILLER_130_1827
*20623 FILLER_130_1829
*20376 FILLER_130_183
*20624 FILLER_130_1831
*20625 FILLER_130_1839
*20626 FILLER_130_1847
*20627 FILLER_130_1855
*20628 FILLER_130_1863
*20629 FILLER_130_1871
*20630 FILLER_130_1879
*20631 FILLER_130_1887
*20632 FILLER_130_1889
*20633 FILLER_130_1891
*20634 FILLER_130_1899
*20635 FILLER_130_1907
*20377 FILLER_130_191
*20636 FILLER_130_1915
*20637 FILLER_130_1923
*20638 FILLER_130_1931
*20639 FILLER_130_1939
*20640 FILLER_130_1947
*20641 FILLER_130_1949
*20642 FILLER_130_1951
*20643 FILLER_130_1959
*20644 FILLER_130_1967
*20645 FILLER_130_1975
*20646 FILLER_130_1983
*20378 FILLER_130_199
*20647 FILLER_130_1991
*20648 FILLER_130_1999
*20649 FILLER_130_2007
*20650 FILLER_130_2009
*20651 FILLER_130_2011
*20652 FILLER_130_2019
*20653 FILLER_130_2027
*20654 FILLER_130_2035
*20655 FILLER_130_2043
*20656 FILLER_130_2051
*20657 FILLER_130_2059
*20658 FILLER_130_2067
*20659 FILLER_130_2069
*20379 FILLER_130_207
*20660 FILLER_130_2071
*20661 FILLER_130_2079
*20662 FILLER_130_2087
*20380 FILLER_130_209
*20663 FILLER_130_2095
*20664 FILLER_130_2103
*20381 FILLER_130_211
*20665 FILLER_130_2111
*20666 FILLER_130_2119
*20667 FILLER_130_2127
*20668 FILLER_130_2129
*20382 FILLER_130_219
*20383 FILLER_130_227
*20384 FILLER_130_235
*20352 FILLER_130_24
*20385 FILLER_130_243
*20386 FILLER_130_251
*20387 FILLER_130_259
*20388 FILLER_130_267
*20389 FILLER_130_269
*20390 FILLER_130_271
*20391 FILLER_130_279
*20353 FILLER_130_28
*20392 FILLER_130_287
*20393 FILLER_130_295
*20394 FILLER_130_303
*20354 FILLER_130_31
*20395 FILLER_130_311
*20396 FILLER_130_319
*20397 FILLER_130_327
*20398 FILLER_130_329
*20399 FILLER_130_331
*20400 FILLER_130_339
*20401 FILLER_130_347
*20402 FILLER_130_355
*20403 FILLER_130_363
*20404 FILLER_130_371
*20405 FILLER_130_379
*20406 FILLER_130_387
*20407 FILLER_130_389
*20355 FILLER_130_39
*20408 FILLER_130_391
*20409 FILLER_130_399
*20410 FILLER_130_407
*20411 FILLER_130_415
*20412 FILLER_130_423
*20413 FILLER_130_431
*20414 FILLER_130_439
*20415 FILLER_130_447
*20416 FILLER_130_449
*20417 FILLER_130_451
*20418 FILLER_130_459
*20419 FILLER_130_467
*20356 FILLER_130_47
*20420 FILLER_130_475
*20421 FILLER_130_483
*20422 FILLER_130_491
*20423 FILLER_130_499
*20424 FILLER_130_507
*20425 FILLER_130_509
*20426 FILLER_130_511
*20427 FILLER_130_519
*20428 FILLER_130_527
*20429 FILLER_130_535
*20430 FILLER_130_543
*20357 FILLER_130_55
*20431 FILLER_130_551
*20432 FILLER_130_559
*20433 FILLER_130_567
*20434 FILLER_130_569
*20435 FILLER_130_571
*20436 FILLER_130_579
*20437 FILLER_130_587
*20438 FILLER_130_595
*20439 FILLER_130_603
*20440 FILLER_130_611
*20441 FILLER_130_619
*20442 FILLER_130_627
*20443 FILLER_130_629
*20358 FILLER_130_63
*20444 FILLER_130_631
*20445 FILLER_130_639
*20446 FILLER_130_647
*20447 FILLER_130_655
*20448 FILLER_130_663
*20449 FILLER_130_671
*20450 FILLER_130_679
*20451 FILLER_130_687
*20452 FILLER_130_689
*20453 FILLER_130_691
*20454 FILLER_130_699
*20455 FILLER_130_707
*20359 FILLER_130_71
*20456 FILLER_130_715
*20457 FILLER_130_723
*20458 FILLER_130_731
*20459 FILLER_130_739
*20460 FILLER_130_747
*20461 FILLER_130_749
*20462 FILLER_130_751
*20463 FILLER_130_759
*20464 FILLER_130_767
*20465 FILLER_130_775
*20466 FILLER_130_783
*20360 FILLER_130_79
*20467 FILLER_130_791
*20468 FILLER_130_799
*20350 FILLER_130_8
*20469 FILLER_130_807
*20470 FILLER_130_809
*20471 FILLER_130_811
*20472 FILLER_130_819
*20473 FILLER_130_827
*20474 FILLER_130_835
*20475 FILLER_130_843
*20476 FILLER_130_851
*20477 FILLER_130_859
*20478 FILLER_130_867
*20479 FILLER_130_869
*20361 FILLER_130_87
*20480 FILLER_130_871
*20481 FILLER_130_879
*20482 FILLER_130_887
*20362 FILLER_130_89
*20483 FILLER_130_895
*20484 FILLER_130_903
*20363 FILLER_130_91
*20485 FILLER_130_911
*20486 FILLER_130_919
*20487 FILLER_130_927
*20488 FILLER_130_929
*20489 FILLER_130_931
*20490 FILLER_130_939
*20491 FILLER_130_947
*20492 FILLER_130_955
*20493 FILLER_130_963
*20494 FILLER_130_971
*20495 FILLER_130_979
*20496 FILLER_130_987
*20497 FILLER_130_989
*20364 FILLER_130_99
*20498 FILLER_130_991
*20499 FILLER_130_999
*20669 FILLER_131_0
*20817 FILLER_131_1001
*20818 FILLER_131_1009
*20682 FILLER_131_101
*20819 FILLER_131_1017
*20820 FILLER_131_1019
*20821 FILLER_131_1021
*20822 FILLER_131_1029
*20823 FILLER_131_1037
*20824 FILLER_131_1045
*20825 FILLER_131_1053
*20826 FILLER_131_1061
*20827 FILLER_131_1069
*20828 FILLER_131_1077
*20829 FILLER_131_1079
*20830 FILLER_131_1081
*20831 FILLER_131_1089
*20683 FILLER_131_109
*20832 FILLER_131_1097
*20833 FILLER_131_1105
*20834 FILLER_131_1113
*20835 FILLER_131_1121
*20836 FILLER_131_1129
*20837 FILLER_131_1137
*20838 FILLER_131_1139
*20839 FILLER_131_1141
*20840 FILLER_131_1149
*20841 FILLER_131_1157
*20842 FILLER_131_1165
*20684 FILLER_131_117
*20843 FILLER_131_1173
*20844 FILLER_131_1181
*20845 FILLER_131_1189
*20685 FILLER_131_119
*20846 FILLER_131_1197
*20847 FILLER_131_1199
*20848 FILLER_131_1201
*20849 FILLER_131_1209
*20686 FILLER_131_121
*20850 FILLER_131_1217
*20851 FILLER_131_1225
*20852 FILLER_131_1233
*20853 FILLER_131_1241
*20854 FILLER_131_1249
*20855 FILLER_131_1257
*20856 FILLER_131_1259
*20857 FILLER_131_1261
*20858 FILLER_131_1269
*20859 FILLER_131_1277
*20860 FILLER_131_1285
*20687 FILLER_131_129
*20861 FILLER_131_1293
*20862 FILLER_131_1301
*20863 FILLER_131_1309
*20864 FILLER_131_1317
*20865 FILLER_131_1319
*20866 FILLER_131_1321
*20867 FILLER_131_1329
*20868 FILLER_131_1337
*20869 FILLER_131_1345
*20870 FILLER_131_1353
*20871 FILLER_131_1361
*20872 FILLER_131_1369
*20688 FILLER_131_137
*20873 FILLER_131_1377
*20874 FILLER_131_1379
*20875 FILLER_131_1381
*20876 FILLER_131_1389
*20877 FILLER_131_1397
*20878 FILLER_131_1405
*20879 FILLER_131_1413
*20880 FILLER_131_1421
*20881 FILLER_131_1429
*20882 FILLER_131_1437
*20883 FILLER_131_1439
*20884 FILLER_131_1441
*20885 FILLER_131_1449
*20689 FILLER_131_145
*20886 FILLER_131_1457
*20887 FILLER_131_1465
*20888 FILLER_131_1473
*20889 FILLER_131_1481
*20890 FILLER_131_1489
*20891 FILLER_131_1497
*20892 FILLER_131_1499
*20893 FILLER_131_1501
*20894 FILLER_131_1509
*20895 FILLER_131_1517
*20896 FILLER_131_1525
*20690 FILLER_131_153
*20897 FILLER_131_1533
*20898 FILLER_131_1541
*20899 FILLER_131_1549
*20900 FILLER_131_1557
*20901 FILLER_131_1559
*20902 FILLER_131_1561
*20903 FILLER_131_1569
*20904 FILLER_131_1577
*20905 FILLER_131_1585
*20906 FILLER_131_1593
*20671 FILLER_131_16
*20907 FILLER_131_1601
*20908 FILLER_131_1609
*20691 FILLER_131_161
*20909 FILLER_131_1617
*20910 FILLER_131_1619
*20911 FILLER_131_1621
*20912 FILLER_131_1629
*20913 FILLER_131_1637
*20914 FILLER_131_1645
*20915 FILLER_131_1653
*20916 FILLER_131_1661
*20917 FILLER_131_1669
*20918 FILLER_131_1677
*20919 FILLER_131_1679
*20920 FILLER_131_1681
*20921 FILLER_131_1689
*20692 FILLER_131_169
*20922 FILLER_131_1697
*20923 FILLER_131_1705
*20924 FILLER_131_1713
*20925 FILLER_131_1721
*20926 FILLER_131_1729
*20927 FILLER_131_1737
*20928 FILLER_131_1739
*20929 FILLER_131_1741
*20930 FILLER_131_1749
*20931 FILLER_131_1757
*20932 FILLER_131_1765
*20693 FILLER_131_177
*20933 FILLER_131_1773
*20934 FILLER_131_1781
*20935 FILLER_131_1789
*20694 FILLER_131_179
*20936 FILLER_131_1797
*20937 FILLER_131_1799
*20938 FILLER_131_1801
*20939 FILLER_131_1809
*20695 FILLER_131_181
*20940 FILLER_131_1817
*20941 FILLER_131_1825
*20942 FILLER_131_1833
*20943 FILLER_131_1841
*20944 FILLER_131_1849
*20945 FILLER_131_1857
*20946 FILLER_131_1859
*20947 FILLER_131_1861
*20948 FILLER_131_1869
*20949 FILLER_131_1877
*20950 FILLER_131_1885
*20696 FILLER_131_189
*20951 FILLER_131_1893
*20952 FILLER_131_1901
*20953 FILLER_131_1909
*20954 FILLER_131_1917
*20955 FILLER_131_1919
*20956 FILLER_131_1921
*20957 FILLER_131_1929
*20958 FILLER_131_1937
*20959 FILLER_131_1945
*20960 FILLER_131_1953
*20961 FILLER_131_1961
*20962 FILLER_131_1969
*20697 FILLER_131_197
*20963 FILLER_131_1977
*20964 FILLER_131_1979
*20965 FILLER_131_1981
*20966 FILLER_131_1989
*20967 FILLER_131_1997
*20968 FILLER_131_2005
*20969 FILLER_131_2013
*20970 FILLER_131_2021
*20971 FILLER_131_2029
*20972 FILLER_131_2037
*20973 FILLER_131_2039
*20974 FILLER_131_2041
*20975 FILLER_131_2049
*20698 FILLER_131_205
*20976 FILLER_131_2057
*20977 FILLER_131_2065
*20978 FILLER_131_2073
*20979 FILLER_131_2081
*20980 FILLER_131_2089
*20981 FILLER_131_2097
*20982 FILLER_131_2099
*20983 FILLER_131_2101
*20984 FILLER_131_2109
*20985 FILLER_131_2117
*20986 FILLER_131_2125
*20987 FILLER_131_2129
*20699 FILLER_131_213
*20700 FILLER_131_221
*20701 FILLER_131_229
*20702 FILLER_131_237
*20703 FILLER_131_239
*20672 FILLER_131_24
*20704 FILLER_131_241
*20705 FILLER_131_249
*20706 FILLER_131_257
*20707 FILLER_131_265
*20708 FILLER_131_273
*20709 FILLER_131_281
*20710 FILLER_131_289
*20711 FILLER_131_297
*20712 FILLER_131_299
*20713 FILLER_131_301
*20714 FILLER_131_309
*20715 FILLER_131_317
*20673 FILLER_131_32
*20716 FILLER_131_325
*20717 FILLER_131_333
*20718 FILLER_131_341
*20719 FILLER_131_349
*20720 FILLER_131_357
*20721 FILLER_131_359
*20722 FILLER_131_361
*20723 FILLER_131_369
*20724 FILLER_131_377
*20725 FILLER_131_385
*20726 FILLER_131_393
*20674 FILLER_131_40
*20727 FILLER_131_401
*20728 FILLER_131_409
*20729 FILLER_131_417
*20730 FILLER_131_419
*20731 FILLER_131_421
*20732 FILLER_131_429
*20733 FILLER_131_437
*20734 FILLER_131_445
*20735 FILLER_131_453
*20736 FILLER_131_461
*20737 FILLER_131_469
*20738 FILLER_131_477
*20739 FILLER_131_479
*20675 FILLER_131_48
*20740 FILLER_131_481
*20741 FILLER_131_489
*20742 FILLER_131_497
*20743 FILLER_131_505
*20744 FILLER_131_513
*20745 FILLER_131_521
*20746 FILLER_131_529
*20747 FILLER_131_537
*20748 FILLER_131_539
*20749 FILLER_131_541
*20750 FILLER_131_549
*20751 FILLER_131_557
*20676 FILLER_131_56
*20752 FILLER_131_565
*20753 FILLER_131_573
*20754 FILLER_131_581
*20755 FILLER_131_589
*20756 FILLER_131_597
*20757 FILLER_131_599
*20758 FILLER_131_601
*20759 FILLER_131_609
*20677 FILLER_131_61
*20760 FILLER_131_617
*20761 FILLER_131_625
*20762 FILLER_131_633
*20763 FILLER_131_641
*20764 FILLER_131_649
*20765 FILLER_131_657
*20766 FILLER_131_659
*20767 FILLER_131_661
*20768 FILLER_131_669
*20769 FILLER_131_677
*20770 FILLER_131_685
*20678 FILLER_131_69
*20771 FILLER_131_693
*20772 FILLER_131_701
*20773 FILLER_131_709
*20774 FILLER_131_717
*20775 FILLER_131_719
*20776 FILLER_131_721
*20777 FILLER_131_729
*20778 FILLER_131_737
*20779 FILLER_131_745
*20780 FILLER_131_753
*20781 FILLER_131_761
*20782 FILLER_131_769
*20679 FILLER_131_77
*20783 FILLER_131_777
*20784 FILLER_131_779
*20785 FILLER_131_781
*20786 FILLER_131_789
*20787 FILLER_131_797
*20670 FILLER_131_8
*20788 FILLER_131_805
*20789 FILLER_131_813
*20790 FILLER_131_821
*20791 FILLER_131_829
*20792 FILLER_131_837
*20793 FILLER_131_839
*20794 FILLER_131_841
*20795 FILLER_131_849
*20680 FILLER_131_85
*20796 FILLER_131_857
*20797 FILLER_131_865
*20798 FILLER_131_873
*20799 FILLER_131_881
*20800 FILLER_131_889
*20801 FILLER_131_897
*20802 FILLER_131_899
*20803 FILLER_131_901
*20804 FILLER_131_909
*20805 FILLER_131_917
*20806 FILLER_131_925
*20681 FILLER_131_93
*20807 FILLER_131_933
*20808 FILLER_131_941
*20809 FILLER_131_949
*20810 FILLER_131_957
*20811 FILLER_131_959
*20812 FILLER_131_961
*20813 FILLER_131_969
*20814 FILLER_131_977
*20815 FILLER_131_985
*20816 FILLER_131_993
*20988 FILLER_132_0
*21139 FILLER_132_1007
*21140 FILLER_132_1015
*21141 FILLER_132_1023
*21142 FILLER_132_1031
*21143 FILLER_132_1039
*21144 FILLER_132_1047
*21145 FILLER_132_1049
*21146 FILLER_132_1051
*21147 FILLER_132_1059
*21148 FILLER_132_1067
*21004 FILLER_132_107
*21149 FILLER_132_1075
*21150 FILLER_132_1083
*21151 FILLER_132_1091
*21152 FILLER_132_1099
*21153 FILLER_132_1107
*21154 FILLER_132_1109
*21155 FILLER_132_1111
*21156 FILLER_132_1119
*21157 FILLER_132_1127
*21158 FILLER_132_1135
*21159 FILLER_132_1143
*21005 FILLER_132_115
*21160 FILLER_132_1151
*21161 FILLER_132_1159
*21162 FILLER_132_1167
*21163 FILLER_132_1169
*21164 FILLER_132_1171
*21165 FILLER_132_1179
*21166 FILLER_132_1187
*21167 FILLER_132_1195
*21168 FILLER_132_1203
*21169 FILLER_132_1211
*21170 FILLER_132_1219
*21171 FILLER_132_1227
*21172 FILLER_132_1229
*21006 FILLER_132_123
*21173 FILLER_132_1231
*21174 FILLER_132_1239
*21175 FILLER_132_1247
*21176 FILLER_132_1255
*21177 FILLER_132_1263
*21178 FILLER_132_1271
*21179 FILLER_132_1279
*21180 FILLER_132_1287
*21181 FILLER_132_1289
*21182 FILLER_132_1291
*21183 FILLER_132_1299
*21184 FILLER_132_1307
*21007 FILLER_132_131
*21185 FILLER_132_1315
*21186 FILLER_132_1323
*21187 FILLER_132_1331
*21188 FILLER_132_1339
*21189 FILLER_132_1347
*21190 FILLER_132_1349
*21191 FILLER_132_1351
*21192 FILLER_132_1359
*21193 FILLER_132_1367
*21194 FILLER_132_1375
*21195 FILLER_132_1383
*21008 FILLER_132_139
*21196 FILLER_132_1391
*21197 FILLER_132_1399
*21198 FILLER_132_1407
*21199 FILLER_132_1409
*21200 FILLER_132_1411
*21201 FILLER_132_1419
*21202 FILLER_132_1427
*21203 FILLER_132_1435
*21204 FILLER_132_1443
*21205 FILLER_132_1451
*21206 FILLER_132_1459
*21207 FILLER_132_1467
*21208 FILLER_132_1469
*21009 FILLER_132_147
*21209 FILLER_132_1471
*21210 FILLER_132_1479
*21211 FILLER_132_1487
*21010 FILLER_132_149
*21212 FILLER_132_1495
*21213 FILLER_132_1503
*21011 FILLER_132_151
*21214 FILLER_132_1511
*21215 FILLER_132_1519
*21216 FILLER_132_1527
*21217 FILLER_132_1529
*21218 FILLER_132_1531
*21219 FILLER_132_1539
*21220 FILLER_132_1547
*21221 FILLER_132_1555
*21222 FILLER_132_1563
*21223 FILLER_132_1571
*21224 FILLER_132_1579
*21225 FILLER_132_1587
*21226 FILLER_132_1589
*21012 FILLER_132_159
*21227 FILLER_132_1591
*21228 FILLER_132_1599
*20990 FILLER_132_16
*21229 FILLER_132_1607
*21230 FILLER_132_1615
*21231 FILLER_132_1623
*21232 FILLER_132_1631
*21233 FILLER_132_1639
*21234 FILLER_132_1647
*21235 FILLER_132_1649
*21236 FILLER_132_1651
*21237 FILLER_132_1659
*21238 FILLER_132_1667
*21013 FILLER_132_167
*21239 FILLER_132_1675
*21240 FILLER_132_1683
*21241 FILLER_132_1691
*21242 FILLER_132_1699
*21243 FILLER_132_1707
*21244 FILLER_132_1709
*21245 FILLER_132_1711
*21246 FILLER_132_1719
*21247 FILLER_132_1727
*21248 FILLER_132_1735
*21249 FILLER_132_1743
*21014 FILLER_132_175
*21250 FILLER_132_1751
*21251 FILLER_132_1759
*21252 FILLER_132_1767
*21253 FILLER_132_1769
*21254 FILLER_132_1771
*21255 FILLER_132_1779
*21256 FILLER_132_1787
*21257 FILLER_132_1795
*21258 FILLER_132_1803
*21259 FILLER_132_1811
*21260 FILLER_132_1819
*21261 FILLER_132_1827
*21262 FILLER_132_1829
*21015 FILLER_132_183
*21263 FILLER_132_1831
*21264 FILLER_132_1839
*21265 FILLER_132_1847
*21266 FILLER_132_1855
*21267 FILLER_132_1863
*21268 FILLER_132_1871
*21269 FILLER_132_1879
*21270 FILLER_132_1887
*21271 FILLER_132_1889
*21272 FILLER_132_1891
*21273 FILLER_132_1899
*21274 FILLER_132_1907
*21016 FILLER_132_191
*21275 FILLER_132_1915
*21276 FILLER_132_1923
*21277 FILLER_132_1931
*21278 FILLER_132_1939
*21279 FILLER_132_1947
*21280 FILLER_132_1949
*21281 FILLER_132_1951
*21282 FILLER_132_1959
*21283 FILLER_132_1967
*21284 FILLER_132_1975
*21285 FILLER_132_1983
*21017 FILLER_132_199
*21286 FILLER_132_1991
*21287 FILLER_132_1999
*21288 FILLER_132_2007
*21289 FILLER_132_2009
*21290 FILLER_132_2011
*21291 FILLER_132_2019
*21292 FILLER_132_2027
*21293 FILLER_132_2035
*21294 FILLER_132_2043
*21295 FILLER_132_2051
*21296 FILLER_132_2059
*21297 FILLER_132_2067
*21298 FILLER_132_2069
*21018 FILLER_132_207
*21299 FILLER_132_2071
*21300 FILLER_132_2079
*21301 FILLER_132_2087
*21019 FILLER_132_209
*21302 FILLER_132_2095
*21303 FILLER_132_2103
*21020 FILLER_132_211
*21304 FILLER_132_2111
*21305 FILLER_132_2119
*21306 FILLER_132_2127
*21307 FILLER_132_2129
*21021 FILLER_132_219
*21022 FILLER_132_227
*21023 FILLER_132_235
*20991 FILLER_132_24
*21024 FILLER_132_243
*21025 FILLER_132_251
*21026 FILLER_132_259
*21027 FILLER_132_267
*21028 FILLER_132_269
*21029 FILLER_132_271
*21030 FILLER_132_279
*20992 FILLER_132_28
*21031 FILLER_132_287
*21032 FILLER_132_295
*21033 FILLER_132_303
*20993 FILLER_132_31
*21034 FILLER_132_311
*21035 FILLER_132_319
*21036 FILLER_132_327
*21037 FILLER_132_329
*21038 FILLER_132_331
*21039 FILLER_132_339
*21040 FILLER_132_347
*21041 FILLER_132_355
*21042 FILLER_132_363
*21043 FILLER_132_371
*21044 FILLER_132_379
*21045 FILLER_132_387
*21046 FILLER_132_389
*20994 FILLER_132_39
*21047 FILLER_132_391
*21048 FILLER_132_399
*21049 FILLER_132_407
*21050 FILLER_132_415
*21051 FILLER_132_423
*21052 FILLER_132_431
*21053 FILLER_132_439
*21054 FILLER_132_447
*21055 FILLER_132_449
*21056 FILLER_132_451
*21057 FILLER_132_459
*21058 FILLER_132_467
*20995 FILLER_132_47
*21059 FILLER_132_475
*21060 FILLER_132_483
*21061 FILLER_132_491
*21062 FILLER_132_499
*21063 FILLER_132_507
*21064 FILLER_132_509
*21065 FILLER_132_511
*21066 FILLER_132_519
*21067 FILLER_132_527
*21068 FILLER_132_535
*21069 FILLER_132_543
*20996 FILLER_132_55
*21070 FILLER_132_551
*21071 FILLER_132_559
*21072 FILLER_132_567
*21073 FILLER_132_569
*21074 FILLER_132_571
*21075 FILLER_132_579
*21076 FILLER_132_587
*21077 FILLER_132_595
*21078 FILLER_132_603
*21079 FILLER_132_611
*21080 FILLER_132_619
*21081 FILLER_132_627
*21082 FILLER_132_629
*20997 FILLER_132_63
*21083 FILLER_132_631
*21084 FILLER_132_639
*21085 FILLER_132_647
*21086 FILLER_132_655
*21087 FILLER_132_663
*21088 FILLER_132_671
*21089 FILLER_132_679
*21090 FILLER_132_687
*21091 FILLER_132_689
*21092 FILLER_132_691
*21093 FILLER_132_699
*21094 FILLER_132_707
*20998 FILLER_132_71
*21095 FILLER_132_715
*21096 FILLER_132_723
*21097 FILLER_132_731
*21098 FILLER_132_739
*21099 FILLER_132_747
*21100 FILLER_132_749
*21101 FILLER_132_751
*21102 FILLER_132_759
*21103 FILLER_132_767
*21104 FILLER_132_775
*21105 FILLER_132_783
*20999 FILLER_132_79
*21106 FILLER_132_791
*21107 FILLER_132_799
*20989 FILLER_132_8
*21108 FILLER_132_807
*21109 FILLER_132_809
*21110 FILLER_132_811
*21111 FILLER_132_819
*21112 FILLER_132_827
*21113 FILLER_132_835
*21114 FILLER_132_843
*21115 FILLER_132_851
*21116 FILLER_132_859
*21117 FILLER_132_867
*21118 FILLER_132_869
*21000 FILLER_132_87
*21119 FILLER_132_871
*21120 FILLER_132_879
*21121 FILLER_132_887
*21001 FILLER_132_89
*21122 FILLER_132_895
*21123 FILLER_132_903
*21002 FILLER_132_91
*21124 FILLER_132_911
*21125 FILLER_132_919
*21126 FILLER_132_927
*21127 FILLER_132_929
*21128 FILLER_132_931
*21129 FILLER_132_939
*21130 FILLER_132_947
*21131 FILLER_132_955
*21132 FILLER_132_963
*21133 FILLER_132_971
*21134 FILLER_132_979
*21135 FILLER_132_987
*21136 FILLER_132_989
*21003 FILLER_132_99
*21137 FILLER_132_991
*21138 FILLER_132_999
*21308 FILLER_133_0
*21455 FILLER_133_1001
*21456 FILLER_133_1009
*21321 FILLER_133_101
*21457 FILLER_133_1017
*21458 FILLER_133_1019
*21459 FILLER_133_1021
*21460 FILLER_133_1029
*21461 FILLER_133_1037
*21462 FILLER_133_1045
*21463 FILLER_133_1053
*21464 FILLER_133_1061
*21465 FILLER_133_1069
*21466 FILLER_133_1077
*21467 FILLER_133_1079
*21468 FILLER_133_1081
*21469 FILLER_133_1089
*21322 FILLER_133_109
*21470 FILLER_133_1097
*21471 FILLER_133_1105
*21472 FILLER_133_1113
*21473 FILLER_133_1121
*21474 FILLER_133_1129
*21475 FILLER_133_1137
*21476 FILLER_133_1139
*21477 FILLER_133_1141
*21478 FILLER_133_1149
*21479 FILLER_133_1157
*21480 FILLER_133_1165
*21323 FILLER_133_117
*21481 FILLER_133_1173
*21482 FILLER_133_1181
*21483 FILLER_133_1189
*21324 FILLER_133_119
*21484 FILLER_133_1197
*21485 FILLER_133_1199
*21486 FILLER_133_1201
*21487 FILLER_133_1209
*21325 FILLER_133_121
*21488 FILLER_133_1217
*21489 FILLER_133_1225
*21490 FILLER_133_1233
*21491 FILLER_133_1241
*21492 FILLER_133_1249
*21493 FILLER_133_1257
*21494 FILLER_133_1259
*21495 FILLER_133_1261
*21496 FILLER_133_1269
*21497 FILLER_133_1277
*21498 FILLER_133_1285
*21326 FILLER_133_129
*21499 FILLER_133_1293
*21500 FILLER_133_1301
*21501 FILLER_133_1309
*21502 FILLER_133_1317
*21503 FILLER_133_1319
*21504 FILLER_133_1321
*21505 FILLER_133_1329
*21506 FILLER_133_1337
*21507 FILLER_133_1345
*21508 FILLER_133_1353
*21509 FILLER_133_1361
*21510 FILLER_133_1369
*21327 FILLER_133_137
*21511 FILLER_133_1377
*21512 FILLER_133_1379
*21513 FILLER_133_1381
*21514 FILLER_133_1389
*21515 FILLER_133_1397
*21516 FILLER_133_1405
*21517 FILLER_133_1413
*21518 FILLER_133_1421
*21519 FILLER_133_1429
*21520 FILLER_133_1437
*21521 FILLER_133_1439
*21522 FILLER_133_1441
*21523 FILLER_133_1449
*21328 FILLER_133_145
*21524 FILLER_133_1457
*21525 FILLER_133_1465
*21526 FILLER_133_1473
*21527 FILLER_133_1481
*21528 FILLER_133_1489
*21529 FILLER_133_1497
*21530 FILLER_133_1499
*21531 FILLER_133_1501
*21532 FILLER_133_1509
*21533 FILLER_133_1517
*21534 FILLER_133_1525
*21329 FILLER_133_153
*21535 FILLER_133_1533
*21536 FILLER_133_1541
*21537 FILLER_133_1549
*21538 FILLER_133_1557
*21539 FILLER_133_1559
*21540 FILLER_133_1561
*21541 FILLER_133_1569
*21542 FILLER_133_1577
*21543 FILLER_133_1585
*21544 FILLER_133_1593
*21310 FILLER_133_16
*21545 FILLER_133_1601
*21546 FILLER_133_1609
*21330 FILLER_133_161
*21547 FILLER_133_1617
*21548 FILLER_133_1619
*21549 FILLER_133_1621
*21550 FILLER_133_1629
*21551 FILLER_133_1637
*21552 FILLER_133_1645
*21553 FILLER_133_1653
*21554 FILLER_133_1661
*21555 FILLER_133_1669
*21556 FILLER_133_1677
*21557 FILLER_133_1679
*21558 FILLER_133_1681
*21559 FILLER_133_1689
*21331 FILLER_133_169
*21560 FILLER_133_1697
*21561 FILLER_133_1705
*21562 FILLER_133_1713
*21563 FILLER_133_1721
*21564 FILLER_133_1729
*21565 FILLER_133_1737
*21566 FILLER_133_1739
*21567 FILLER_133_1741
*21568 FILLER_133_1749
*21569 FILLER_133_1757
*21570 FILLER_133_1765
*21332 FILLER_133_177
*21571 FILLER_133_1773
*21572 FILLER_133_1781
*21573 FILLER_133_1789
*21333 FILLER_133_179
*21574 FILLER_133_1797
*21575 FILLER_133_1799
*21576 FILLER_133_1801
*21577 FILLER_133_1809
*21334 FILLER_133_181
*21578 FILLER_133_1817
*21579 FILLER_133_1825
*21580 FILLER_133_1833
*21581 FILLER_133_1841
*21582 FILLER_133_1849
*21583 FILLER_133_1857
*21584 FILLER_133_1859
*21585 FILLER_133_1861
*21586 FILLER_133_1869
*21587 FILLER_133_1877
*21588 FILLER_133_1885
*21335 FILLER_133_189
*21589 FILLER_133_1893
*21590 FILLER_133_1901
*21591 FILLER_133_1909
*21592 FILLER_133_1917
*21593 FILLER_133_1919
*21594 FILLER_133_1921
*21595 FILLER_133_1929
*21596 FILLER_133_1937
*21597 FILLER_133_1945
*21598 FILLER_133_1953
*21599 FILLER_133_1961
*21600 FILLER_133_1969
*21336 FILLER_133_197
*21601 FILLER_133_1977
*21602 FILLER_133_1979
*21603 FILLER_133_1981
*21604 FILLER_133_1989
*21605 FILLER_133_1997
*21606 FILLER_133_2005
*21607 FILLER_133_2013
*21608 FILLER_133_2021
*21609 FILLER_133_2029
*21610 FILLER_133_2037
*21611 FILLER_133_2039
*21612 FILLER_133_2041
*21613 FILLER_133_2049
*21337 FILLER_133_205
*21614 FILLER_133_2057
*21615 FILLER_133_2065
*21616 FILLER_133_2073
*21617 FILLER_133_2081
*21618 FILLER_133_2089
*21619 FILLER_133_2097
*21620 FILLER_133_2099
*21621 FILLER_133_2101
*21622 FILLER_133_2109
*21623 FILLER_133_2117
*21624 FILLER_133_2125
*21625 FILLER_133_2129
*21338 FILLER_133_213
*21339 FILLER_133_221
*21340 FILLER_133_229
*21341 FILLER_133_237
*21342 FILLER_133_239
*21311 FILLER_133_24
*21343 FILLER_133_241
*21344 FILLER_133_249
*21345 FILLER_133_257
*21346 FILLER_133_265
*21347 FILLER_133_273
*21348 FILLER_133_281
*21349 FILLER_133_289
*21350 FILLER_133_297
*21351 FILLER_133_299
*21352 FILLER_133_301
*21353 FILLER_133_309
*21354 FILLER_133_317
*21312 FILLER_133_32
*21355 FILLER_133_325
*21356 FILLER_133_333
*21357 FILLER_133_341
*21358 FILLER_133_349
*21359 FILLER_133_357
*21360 FILLER_133_359
*21361 FILLER_133_361
*21362 FILLER_133_369
*21363 FILLER_133_377
*21364 FILLER_133_385
*21365 FILLER_133_393
*21313 FILLER_133_40
*21366 FILLER_133_401
*21367 FILLER_133_409
*21368 FILLER_133_417
*21369 FILLER_133_419
*21370 FILLER_133_421
*21371 FILLER_133_429
*21372 FILLER_133_437
*21373 FILLER_133_445
*21374 FILLER_133_453
*21375 FILLER_133_461
*21376 FILLER_133_469
*21377 FILLER_133_477
*21378 FILLER_133_479
*21314 FILLER_133_48
*21379 FILLER_133_481
*21380 FILLER_133_489
*21381 FILLER_133_497
*21382 FILLER_133_505
*21383 FILLER_133_513
*21384 FILLER_133_521
*21385 FILLER_133_529
*21386 FILLER_133_537
*21387 FILLER_133_539
*21388 FILLER_133_541
*21389 FILLER_133_549
*21390 FILLER_133_557
*21315 FILLER_133_56
*21391 FILLER_133_565
*21392 FILLER_133_573
*21393 FILLER_133_581
*21394 FILLER_133_589
*21395 FILLER_133_597
*21396 FILLER_133_599
*21397 FILLER_133_601
*21398 FILLER_133_609
*21316 FILLER_133_61
*21399 FILLER_133_625
*21400 FILLER_133_633
*21401 FILLER_133_641
*21402 FILLER_133_649
*21403 FILLER_133_657
*21404 FILLER_133_659
*21405 FILLER_133_661
*21406 FILLER_133_669
*21407 FILLER_133_677
*21408 FILLER_133_685
*21317 FILLER_133_69
*21409 FILLER_133_693
*21410 FILLER_133_701
*21411 FILLER_133_709
*21412 FILLER_133_717
*21413 FILLER_133_719
*21414 FILLER_133_721
*21415 FILLER_133_729
*21416 FILLER_133_737
*21417 FILLER_133_745
*21418 FILLER_133_753
*21419 FILLER_133_761
*21420 FILLER_133_769
*21318 FILLER_133_77
*21421 FILLER_133_777
*21422 FILLER_133_779
*21423 FILLER_133_781
*21424 FILLER_133_789
*21425 FILLER_133_797
*21309 FILLER_133_8
*21426 FILLER_133_805
*21427 FILLER_133_813
*21428 FILLER_133_821
*21429 FILLER_133_829
*21430 FILLER_133_837
*21431 FILLER_133_839
*21432 FILLER_133_841
*21433 FILLER_133_849
*21319 FILLER_133_85
*21434 FILLER_133_857
*21435 FILLER_133_865
*21436 FILLER_133_873
*21437 FILLER_133_881
*21438 FILLER_133_889
*21439 FILLER_133_897
*21440 FILLER_133_899
*21441 FILLER_133_901
*21442 FILLER_133_909
*21443 FILLER_133_917
*21444 FILLER_133_925
*21320 FILLER_133_93
*21445 FILLER_133_933
*21446 FILLER_133_941
*21447 FILLER_133_949
*21448 FILLER_133_957
*21449 FILLER_133_959
*21450 FILLER_133_961
*21451 FILLER_133_969
*21452 FILLER_133_977
*21453 FILLER_133_985
*21454 FILLER_133_993
*21626 FILLER_134_0
*21776 FILLER_134_1007
*21777 FILLER_134_1015
*21778 FILLER_134_1023
*21779 FILLER_134_1031
*21780 FILLER_134_1039
*21781 FILLER_134_1047
*21782 FILLER_134_1049
*21783 FILLER_134_1051
*21784 FILLER_134_1059
*21785 FILLER_134_1067
*21642 FILLER_134_107
*21786 FILLER_134_1075
*21787 FILLER_134_1083
*21788 FILLER_134_1091
*21789 FILLER_134_1099
*21790 FILLER_134_1107
*21791 FILLER_134_1109
*21792 FILLER_134_1111
*21793 FILLER_134_1119
*21794 FILLER_134_1127
*21795 FILLER_134_1135
*21796 FILLER_134_1143
*21643 FILLER_134_115
*21797 FILLER_134_1151
*21798 FILLER_134_1159
*21799 FILLER_134_1167
*21800 FILLER_134_1169
*21801 FILLER_134_1171
*21802 FILLER_134_1179
*21803 FILLER_134_1187
*21804 FILLER_134_1195
*21805 FILLER_134_1203
*21806 FILLER_134_1211
*21807 FILLER_134_1219
*21808 FILLER_134_1227
*21809 FILLER_134_1229
*21644 FILLER_134_123
*21810 FILLER_134_1231
*21811 FILLER_134_1239
*21812 FILLER_134_1247
*21813 FILLER_134_1255
*21814 FILLER_134_1263
*21815 FILLER_134_1271
*21816 FILLER_134_1279
*21817 FILLER_134_1287
*21818 FILLER_134_1289
*21819 FILLER_134_1291
*21820 FILLER_134_1299
*21821 FILLER_134_1309
*21645 FILLER_134_131
*21822 FILLER_134_1317
*21823 FILLER_134_1325
*21824 FILLER_134_1333
*21825 FILLER_134_1341
*21826 FILLER_134_1349
*21827 FILLER_134_1351
*21828 FILLER_134_1359
*21829 FILLER_134_1367
*21830 FILLER_134_1375
*21831 FILLER_134_1383
*21646 FILLER_134_139
*21832 FILLER_134_1391
*21833 FILLER_134_1399
*21834 FILLER_134_1407
*21835 FILLER_134_1409
*21836 FILLER_134_1411
*21837 FILLER_134_1419
*21838 FILLER_134_1427
*21839 FILLER_134_1435
*21840 FILLER_134_1443
*21841 FILLER_134_1451
*21842 FILLER_134_1459
*21843 FILLER_134_1467
*21844 FILLER_134_1469
*21647 FILLER_134_147
*21845 FILLER_134_1471
*21846 FILLER_134_1479
*21847 FILLER_134_1487
*21648 FILLER_134_149
*21848 FILLER_134_1495
*21849 FILLER_134_1503
*21649 FILLER_134_151
*21850 FILLER_134_1511
*21851 FILLER_134_1519
*21852 FILLER_134_1527
*21853 FILLER_134_1529
*21854 FILLER_134_1531
*21855 FILLER_134_1539
*21856 FILLER_134_1547
*21857 FILLER_134_1555
*21858 FILLER_134_1563
*21859 FILLER_134_1571
*21860 FILLER_134_1579
*21861 FILLER_134_1587
*21862 FILLER_134_1589
*21650 FILLER_134_159
*21863 FILLER_134_1591
*21864 FILLER_134_1599
*21628 FILLER_134_16
*21865 FILLER_134_1607
*21866 FILLER_134_1615
*21867 FILLER_134_1623
*21868 FILLER_134_1631
*21869 FILLER_134_1639
*21870 FILLER_134_1647
*21871 FILLER_134_1649
*21872 FILLER_134_1651
*21873 FILLER_134_1659
*21874 FILLER_134_1667
*21651 FILLER_134_167
*21875 FILLER_134_1675
*21876 FILLER_134_1683
*21877 FILLER_134_1691
*21878 FILLER_134_1699
*21879 FILLER_134_1707
*21880 FILLER_134_1709
*21881 FILLER_134_1711
*21882 FILLER_134_1719
*21883 FILLER_134_1727
*21884 FILLER_134_1735
*21885 FILLER_134_1743
*21652 FILLER_134_175
*21886 FILLER_134_1751
*21887 FILLER_134_1759
*21888 FILLER_134_1767
*21889 FILLER_134_1769
*21890 FILLER_134_1771
*21891 FILLER_134_1779
*21892 FILLER_134_1787
*21893 FILLER_134_1795
*21894 FILLER_134_1803
*21895 FILLER_134_1811
*21896 FILLER_134_1819
*21897 FILLER_134_1827
*21898 FILLER_134_1829
*21653 FILLER_134_183
*21899 FILLER_134_1831
*21900 FILLER_134_1839
*21901 FILLER_134_1847
*21902 FILLER_134_1855
*21903 FILLER_134_1863
*21904 FILLER_134_1871
*21905 FILLER_134_1879
*21906 FILLER_134_1887
*21907 FILLER_134_1889
*21908 FILLER_134_1891
*21909 FILLER_134_1899
*21910 FILLER_134_1907
*21654 FILLER_134_191
*21911 FILLER_134_1915
*21912 FILLER_134_1923
*21913 FILLER_134_1931
*21914 FILLER_134_1939
*21915 FILLER_134_1947
*21916 FILLER_134_1949
*21917 FILLER_134_1951
*21918 FILLER_134_1959
*21919 FILLER_134_1967
*21920 FILLER_134_1975
*21921 FILLER_134_1983
*21655 FILLER_134_199
*21922 FILLER_134_1991
*21923 FILLER_134_1999
*21924 FILLER_134_2007
*21925 FILLER_134_2009
*21926 FILLER_134_2011
*21927 FILLER_134_2019
*21928 FILLER_134_2027
*21929 FILLER_134_2035
*21930 FILLER_134_2043
*21931 FILLER_134_2051
*21932 FILLER_134_2059
*21933 FILLER_134_2067
*21934 FILLER_134_2069
*21656 FILLER_134_207
*21935 FILLER_134_2071
*21936 FILLER_134_2079
*21937 FILLER_134_2087
*21657 FILLER_134_209
*21938 FILLER_134_2095
*21939 FILLER_134_2103
*21658 FILLER_134_211
*21940 FILLER_134_2111
*21941 FILLER_134_2119
*21942 FILLER_134_2127
*21943 FILLER_134_2129
*21659 FILLER_134_219
*21660 FILLER_134_227
*21661 FILLER_134_235
*21629 FILLER_134_24
*21662 FILLER_134_243
*21663 FILLER_134_251
*21664 FILLER_134_259
*21665 FILLER_134_267
*21666 FILLER_134_269
*21667 FILLER_134_271
*21668 FILLER_134_279
*21630 FILLER_134_28
*21669 FILLER_134_287
*21670 FILLER_134_295
*21671 FILLER_134_303
*21631 FILLER_134_31
*21672 FILLER_134_311
*21673 FILLER_134_319
*21674 FILLER_134_327
*21675 FILLER_134_329
*21676 FILLER_134_331
*21677 FILLER_134_339
*21678 FILLER_134_347
*21679 FILLER_134_355
*21680 FILLER_134_363
*21681 FILLER_134_371
*21682 FILLER_134_379
*21683 FILLER_134_387
*21684 FILLER_134_389
*21632 FILLER_134_39
*21685 FILLER_134_391
*21686 FILLER_134_399
*21687 FILLER_134_407
*21688 FILLER_134_415
*21689 FILLER_134_423
*21690 FILLER_134_431
*21691 FILLER_134_439
*21692 FILLER_134_447
*21693 FILLER_134_449
*21694 FILLER_134_451
*21695 FILLER_134_459
*21696 FILLER_134_467
*21633 FILLER_134_47
*21697 FILLER_134_475
*21698 FILLER_134_483
*21699 FILLER_134_491
*21700 FILLER_134_499
*21701 FILLER_134_507
*21702 FILLER_134_509
*21703 FILLER_134_511
*21704 FILLER_134_519
*21705 FILLER_134_527
*21706 FILLER_134_535
*21707 FILLER_134_543
*21634 FILLER_134_55
*21708 FILLER_134_551
*21709 FILLER_134_559
*21710 FILLER_134_567
*21711 FILLER_134_569
*21712 FILLER_134_571
*21713 FILLER_134_579
*21714 FILLER_134_587
*21715 FILLER_134_595
*21716 FILLER_134_603
*21717 FILLER_134_611
*21718 FILLER_134_619
*21719 FILLER_134_627
*21720 FILLER_134_629
*21635 FILLER_134_63
*21721 FILLER_134_631
*21722 FILLER_134_639
*21723 FILLER_134_647
*21724 FILLER_134_655
*21725 FILLER_134_663
*21726 FILLER_134_671
*21727 FILLER_134_679
*21728 FILLER_134_687
*21729 FILLER_134_689
*21730 FILLER_134_691
*21731 FILLER_134_700
*21732 FILLER_134_708
*21636 FILLER_134_71
*21733 FILLER_134_716
*21734 FILLER_134_724
*21735 FILLER_134_732
*21736 FILLER_134_740
*21737 FILLER_134_748
*21738 FILLER_134_751
*21739 FILLER_134_759
*21740 FILLER_134_767
*21741 FILLER_134_775
*21742 FILLER_134_783
*21637 FILLER_134_79
*21743 FILLER_134_791
*21744 FILLER_134_799
*21627 FILLER_134_8
*21745 FILLER_134_807
*21746 FILLER_134_809
*21747 FILLER_134_811
*21748 FILLER_134_819
*21749 FILLER_134_827
*21750 FILLER_134_835
*21751 FILLER_134_843
*21752 FILLER_134_851
*21753 FILLER_134_859
*21754 FILLER_134_867
*21755 FILLER_134_869
*21638 FILLER_134_87
*21756 FILLER_134_871
*21757 FILLER_134_879
*21758 FILLER_134_887
*21639 FILLER_134_89
*21759 FILLER_134_895
*21760 FILLER_134_903
*21640 FILLER_134_91
*21761 FILLER_134_911
*21762 FILLER_134_919
*21763 FILLER_134_927
*21764 FILLER_134_929
*21765 FILLER_134_931
*21766 FILLER_134_939
*21767 FILLER_134_947
*21768 FILLER_134_955
*21769 FILLER_134_963
*21770 FILLER_134_971
*21771 FILLER_134_979
*21772 FILLER_134_987
*21773 FILLER_134_989
*21641 FILLER_134_99
*21774 FILLER_134_991
*21775 FILLER_134_999
*21944 FILLER_135_0
*22089 FILLER_135_1003
*21957 FILLER_135_101
*22090 FILLER_135_1011
*22091 FILLER_135_1019
*22092 FILLER_135_1021
*22093 FILLER_135_1029
*22094 FILLER_135_1037
*22095 FILLER_135_1045
*22096 FILLER_135_1047
*22097 FILLER_135_1056
*22098 FILLER_135_1064
*22099 FILLER_135_1072
*22100 FILLER_135_1081
*21958 FILLER_135_109
*22101 FILLER_135_1093
*22102 FILLER_135_1101
*22103 FILLER_135_1109
*22104 FILLER_135_1117
*22105 FILLER_135_1125
*22106 FILLER_135_1133
*22107 FILLER_135_1137
*22108 FILLER_135_1139
*22109 FILLER_135_1141
*22110 FILLER_135_1149
*22111 FILLER_135_1157
*22112 FILLER_135_1165
*21959 FILLER_135_117
*22113 FILLER_135_1175
*22114 FILLER_135_1183
*21960 FILLER_135_119
*22115 FILLER_135_1199
*22116 FILLER_135_1201
*22117 FILLER_135_1209
*21961 FILLER_135_121
*22118 FILLER_135_1217
*22119 FILLER_135_1225
*22120 FILLER_135_1233
*22121 FILLER_135_1241
*22122 FILLER_135_1249
*22123 FILLER_135_1257
*22124 FILLER_135_1259
*22125 FILLER_135_1261
*22126 FILLER_135_1269
*22127 FILLER_135_1277
*22128 FILLER_135_1285
*21962 FILLER_135_129
*22129 FILLER_135_1295
*22130 FILLER_135_1303
*22131 FILLER_135_1311
*22132 FILLER_135_1321
*22133 FILLER_135_1329
*22134 FILLER_135_1337
*22135 FILLER_135_1345
*22136 FILLER_135_1353
*22137 FILLER_135_1361
*22138 FILLER_135_1369
*21963 FILLER_135_137
*22139 FILLER_135_1377
*22140 FILLER_135_1379
*22141 FILLER_135_1381
*22142 FILLER_135_1389
*22143 FILLER_135_1397
*22144 FILLER_135_1401
*22145 FILLER_135_1403
*22146 FILLER_135_1412
*22147 FILLER_135_1420
*22148 FILLER_135_1428
*22149 FILLER_135_1436
*22150 FILLER_135_1441
*22151 FILLER_135_1449
*21964 FILLER_135_145
*22152 FILLER_135_1457
*22153 FILLER_135_1465
*22154 FILLER_135_1473
*22155 FILLER_135_1481
*22156 FILLER_135_1489
*22157 FILLER_135_1497
*22158 FILLER_135_1499
*22159 FILLER_135_1501
*22160 FILLER_135_1509
*22161 FILLER_135_1517
*22162 FILLER_135_1525
*21965 FILLER_135_153
*22163 FILLER_135_1533
*22164 FILLER_135_1541
*22165 FILLER_135_1549
*22166 FILLER_135_1557
*22167 FILLER_135_1559
*22168 FILLER_135_1561
*22169 FILLER_135_1569
*22170 FILLER_135_1577
*22171 FILLER_135_1585
*22172 FILLER_135_1593
*21946 FILLER_135_16
*22173 FILLER_135_1601
*22174 FILLER_135_1609
*21966 FILLER_135_161
*22175 FILLER_135_1617
*22176 FILLER_135_1619
*22177 FILLER_135_1621
*22178 FILLER_135_1629
*22179 FILLER_135_1637
*22180 FILLER_135_1645
*22181 FILLER_135_1653
*22182 FILLER_135_1661
*22183 FILLER_135_1669
*22184 FILLER_135_1677
*22185 FILLER_135_1679
*22186 FILLER_135_1681
*22187 FILLER_135_1689
*21967 FILLER_135_169
*22188 FILLER_135_1697
*22189 FILLER_135_1705
*22190 FILLER_135_1713
*22191 FILLER_135_1721
*22192 FILLER_135_1729
*22193 FILLER_135_1737
*22194 FILLER_135_1739
*22195 FILLER_135_1741
*22196 FILLER_135_1749
*22197 FILLER_135_1757
*22198 FILLER_135_1765
*21968 FILLER_135_177
*22199 FILLER_135_1773
*22200 FILLER_135_1781
*22201 FILLER_135_1789
*21969 FILLER_135_179
*22202 FILLER_135_1797
*22203 FILLER_135_1799
*22204 FILLER_135_1801
*22205 FILLER_135_1809
*21970 FILLER_135_181
*22206 FILLER_135_1817
*22207 FILLER_135_1825
*22208 FILLER_135_1833
*22209 FILLER_135_1841
*22210 FILLER_135_1849
*22211 FILLER_135_1857
*22212 FILLER_135_1859
*22213 FILLER_135_1861
*22214 FILLER_135_1869
*22215 FILLER_135_1877
*22216 FILLER_135_1885
*21971 FILLER_135_189
*22217 FILLER_135_1893
*22218 FILLER_135_1901
*22219 FILLER_135_1909
*22220 FILLER_135_1917
*22221 FILLER_135_1919
*22222 FILLER_135_1921
*22223 FILLER_135_1929
*22224 FILLER_135_1937
*22225 FILLER_135_1945
*22226 FILLER_135_1953
*22227 FILLER_135_1961
*22228 FILLER_135_1969
*21972 FILLER_135_197
*22229 FILLER_135_1977
*22230 FILLER_135_1979
*22231 FILLER_135_1981
*22232 FILLER_135_1989
*22233 FILLER_135_1997
*22234 FILLER_135_2005
*22235 FILLER_135_2013
*22236 FILLER_135_2021
*22237 FILLER_135_2029
*22238 FILLER_135_2037
*22239 FILLER_135_2039
*22240 FILLER_135_2041
*22241 FILLER_135_2049
*21973 FILLER_135_205
*22242 FILLER_135_2057
*22243 FILLER_135_2065
*22244 FILLER_135_2073
*22245 FILLER_135_2081
*22246 FILLER_135_2089
*22247 FILLER_135_2097
*22248 FILLER_135_2099
*22249 FILLER_135_2101
*22250 FILLER_135_2109
*22251 FILLER_135_2117
*22252 FILLER_135_2125
*22253 FILLER_135_2129
*21974 FILLER_135_213
*21975 FILLER_135_221
*21976 FILLER_135_229
*21977 FILLER_135_237
*21978 FILLER_135_239
*21947 FILLER_135_24
*21979 FILLER_135_241
*21980 FILLER_135_249
*21981 FILLER_135_257
*21982 FILLER_135_265
*21983 FILLER_135_273
*21984 FILLER_135_281
*21985 FILLER_135_289
*21986 FILLER_135_297
*21987 FILLER_135_299
*21988 FILLER_135_301
*21989 FILLER_135_309
*21990 FILLER_135_317
*21948 FILLER_135_32
*21991 FILLER_135_325
*21992 FILLER_135_333
*21993 FILLER_135_341
*21994 FILLER_135_349
*21995 FILLER_135_357
*21996 FILLER_135_359
*21997 FILLER_135_361
*21998 FILLER_135_369
*21999 FILLER_135_377
*22000 FILLER_135_385
*22001 FILLER_135_393
*21949 FILLER_135_40
*22002 FILLER_135_401
*22003 FILLER_135_409
*22004 FILLER_135_417
*22005 FILLER_135_419
*22006 FILLER_135_421
*22007 FILLER_135_429
*22008 FILLER_135_437
*22009 FILLER_135_445
*22010 FILLER_135_453
*22011 FILLER_135_461
*22012 FILLER_135_469
*22013 FILLER_135_477
*22014 FILLER_135_479
*21950 FILLER_135_48
*22015 FILLER_135_481
*22016 FILLER_135_489
*22017 FILLER_135_491
*22018 FILLER_135_500
*22019 FILLER_135_508
*22020 FILLER_135_516
*22021 FILLER_135_525
*22022 FILLER_135_529
*22023 FILLER_135_531
*22024 FILLER_135_541
*22025 FILLER_135_549
*22026 FILLER_135_557
*21951 FILLER_135_56
*22027 FILLER_135_565
*22028 FILLER_135_573
*22029 FILLER_135_581
*22030 FILLER_135_585
*22031 FILLER_135_587
*22032 FILLER_135_596
*22033 FILLER_135_601
*22034 FILLER_135_609
*21952 FILLER_135_61
*22035 FILLER_135_617
*22036 FILLER_135_625
*22037 FILLER_135_633
*22038 FILLER_135_641
*22039 FILLER_135_649
*22040 FILLER_135_657
*22041 FILLER_135_659
*22042 FILLER_135_661
*22043 FILLER_135_669
*22044 FILLER_135_677
*22045 FILLER_135_685
*21953 FILLER_135_69
*22046 FILLER_135_693
*22047 FILLER_135_701
*22048 FILLER_135_709
*22049 FILLER_135_717
*22050 FILLER_135_719
*22051 FILLER_135_721
*22052 FILLER_135_729
*22053 FILLER_135_737
*22054 FILLER_135_745
*22055 FILLER_135_753
*22056 FILLER_135_761
*21954 FILLER_135_77
*22057 FILLER_135_777
*22058 FILLER_135_779
*22059 FILLER_135_781
*22060 FILLER_135_789
*22061 FILLER_135_797
*21945 FILLER_135_8
*22062 FILLER_135_805
*22063 FILLER_135_813
*22064 FILLER_135_821
*22065 FILLER_135_829
*22066 FILLER_135_837
*22067 FILLER_135_839
*22068 FILLER_135_841
*22069 FILLER_135_849
*21955 FILLER_135_85
*22070 FILLER_135_857
*22071 FILLER_135_865
*22072 FILLER_135_873
*22073 FILLER_135_883
*22074 FILLER_135_891
*22075 FILLER_135_899
*22076 FILLER_135_901
*22077 FILLER_135_909
*22078 FILLER_135_917
*22079 FILLER_135_925
*22080 FILLER_135_927
*21956 FILLER_135_93
*22081 FILLER_135_936
*22082 FILLER_135_944
*22083 FILLER_135_952
*22084 FILLER_135_961
*22085 FILLER_135_969
*22086 FILLER_135_977
*22087 FILLER_135_987
*22088 FILLER_135_995
*22254 FILLER_136_0
*22405 FILLER_136_1002
*22406 FILLER_136_1010
*22407 FILLER_136_1019
*22408 FILLER_136_1029
*22409 FILLER_136_1045
*22410 FILLER_136_1049
*22411 FILLER_136_1051
*22412 FILLER_136_1059
*22413 FILLER_136_1069
*22270 FILLER_136_107
*22414 FILLER_136_1081
*22415 FILLER_136_1085
*22416 FILLER_136_1087
*22417 FILLER_136_1096
*22418 FILLER_136_1100
*22419 FILLER_136_1111
*22420 FILLER_136_1113
*22421 FILLER_136_1122
*22422 FILLER_136_1134
*22271 FILLER_136_115
*22423 FILLER_136_1150
*22424 FILLER_136_1152
*22425 FILLER_136_1161
*22426 FILLER_136_1169
*22427 FILLER_136_1171
*22428 FILLER_136_1179
*22429 FILLER_136_1181
*22430 FILLER_136_1190
*22431 FILLER_136_1202
*22432 FILLER_136_1206
*22433 FILLER_136_1216
*22434 FILLER_136_1228
*22272 FILLER_136_123
*22435 FILLER_136_1231
*22436 FILLER_136_1240
*22437 FILLER_136_1244
*22438 FILLER_136_1253
*22439 FILLER_136_1257
*22440 FILLER_136_1267
*22441 FILLER_136_1271
*22442 FILLER_136_1273
*22443 FILLER_136_1282
*22444 FILLER_136_1291
*22445 FILLER_136_1295
*22446 FILLER_136_1305
*22273 FILLER_136_131
*22447 FILLER_136_1313
*22448 FILLER_136_1321
*22449 FILLER_136_1333
*22450 FILLER_136_1337
*22451 FILLER_136_1346
*22452 FILLER_136_1351
*22453 FILLER_136_1353
*22454 FILLER_136_1362
*22455 FILLER_136_1374
*22456 FILLER_136_1378
*22457 FILLER_136_1387
*22274 FILLER_136_139
*22458 FILLER_136_1391
*22459 FILLER_136_1400
*22460 FILLER_136_1408
*22461 FILLER_136_1411
*22462 FILLER_136_1419
*22463 FILLER_136_1437
*22464 FILLER_136_1445
*22465 FILLER_136_1454
*22466 FILLER_136_1458
*22467 FILLER_136_1467
*22468 FILLER_136_1469
*22275 FILLER_136_147
*22469 FILLER_136_1479
*22470 FILLER_136_1483
*22471 FILLER_136_1485
*22276 FILLER_136_149
*22472 FILLER_136_1494
*22473 FILLER_136_1506
*22277 FILLER_136_151
*22474 FILLER_136_1514
*22475 FILLER_136_1522
*22476 FILLER_136_1531
*22477 FILLER_136_1539
*22478 FILLER_136_1547
*22479 FILLER_136_1555
*22480 FILLER_136_1563
*22481 FILLER_136_1571
*22482 FILLER_136_1579
*22483 FILLER_136_1587
*22484 FILLER_136_1589
*22278 FILLER_136_159
*22485 FILLER_136_1591
*22486 FILLER_136_1599
*22256 FILLER_136_16
*22487 FILLER_136_1607
*22488 FILLER_136_1615
*22489 FILLER_136_1623
*22490 FILLER_136_1631
*22491 FILLER_136_1639
*22492 FILLER_136_1647
*22493 FILLER_136_1649
*22494 FILLER_136_1651
*22495 FILLER_136_1659
*22496 FILLER_136_1667
*22279 FILLER_136_167
*22497 FILLER_136_1675
*22498 FILLER_136_1683
*22499 FILLER_136_1691
*22500 FILLER_136_1699
*22501 FILLER_136_1707
*22502 FILLER_136_1709
*22503 FILLER_136_1711
*22504 FILLER_136_1719
*22505 FILLER_136_1727
*22506 FILLER_136_1735
*22507 FILLER_136_1743
*22280 FILLER_136_175
*22508 FILLER_136_1751
*22509 FILLER_136_1759
*22510 FILLER_136_1767
*22511 FILLER_136_1769
*22512 FILLER_136_1771
*22513 FILLER_136_1779
*22514 FILLER_136_1787
*22515 FILLER_136_1795
*22516 FILLER_136_1803
*22517 FILLER_136_1811
*22518 FILLER_136_1819
*22519 FILLER_136_1827
*22520 FILLER_136_1829
*22281 FILLER_136_183
*22521 FILLER_136_1831
*22522 FILLER_136_1839
*22523 FILLER_136_1847
*22524 FILLER_136_1855
*22525 FILLER_136_1863
*22526 FILLER_136_1871
*22527 FILLER_136_1879
*22528 FILLER_136_1887
*22529 FILLER_136_1889
*22530 FILLER_136_1891
*22531 FILLER_136_1899
*22532 FILLER_136_1907
*22282 FILLER_136_191
*22533 FILLER_136_1915
*22534 FILLER_136_1923
*22535 FILLER_136_1931
*22536 FILLER_136_1939
*22537 FILLER_136_1947
*22538 FILLER_136_1949
*22539 FILLER_136_1951
*22540 FILLER_136_1959
*22541 FILLER_136_1967
*22542 FILLER_136_1975
*22543 FILLER_136_1983
*22283 FILLER_136_199
*22544 FILLER_136_1991
*22545 FILLER_136_1999
*22546 FILLER_136_2007
*22547 FILLER_136_2009
*22548 FILLER_136_2011
*22549 FILLER_136_2019
*22550 FILLER_136_2027
*22551 FILLER_136_2035
*22552 FILLER_136_2043
*22553 FILLER_136_2051
*22554 FILLER_136_2059
*22555 FILLER_136_2067
*22556 FILLER_136_2069
*22284 FILLER_136_207
*22557 FILLER_136_2071
*22558 FILLER_136_2079
*22559 FILLER_136_2087
*22285 FILLER_136_209
*22560 FILLER_136_2095
*22561 FILLER_136_2103
*22286 FILLER_136_211
*22562 FILLER_136_2111
*22563 FILLER_136_2119
*22564 FILLER_136_2127
*22565 FILLER_136_2129
*22287 FILLER_136_219
*22288 FILLER_136_227
*22289 FILLER_136_235
*22257 FILLER_136_24
*22290 FILLER_136_243
*22291 FILLER_136_251
*22292 FILLER_136_259
*22293 FILLER_136_267
*22294 FILLER_136_269
*22295 FILLER_136_271
*22296 FILLER_136_279
*22258 FILLER_136_28
*22297 FILLER_136_287
*22298 FILLER_136_295
*22299 FILLER_136_303
*22259 FILLER_136_31
*22300 FILLER_136_311
*22301 FILLER_136_319
*22302 FILLER_136_327
*22303 FILLER_136_329
*22304 FILLER_136_331
*22305 FILLER_136_339
*22306 FILLER_136_347
*22307 FILLER_136_355
*22308 FILLER_136_363
*22309 FILLER_136_371
*22310 FILLER_136_379
*22311 FILLER_136_387
*22312 FILLER_136_389
*22260 FILLER_136_39
*22313 FILLER_136_391
*22314 FILLER_136_399
*22315 FILLER_136_407
*22316 FILLER_136_415
*22317 FILLER_136_423
*22318 FILLER_136_431
*22319 FILLER_136_439
*22320 FILLER_136_447
*22321 FILLER_136_449
*22322 FILLER_136_451
*22323 FILLER_136_459
*22324 FILLER_136_467
*22261 FILLER_136_47
*22325 FILLER_136_475
*22326 FILLER_136_484
*22327 FILLER_136_492
*22328 FILLER_136_500
*22329 FILLER_136_508
*22330 FILLER_136_511
*22331 FILLER_136_519
*22332 FILLER_136_527
*22333 FILLER_136_535
*22334 FILLER_136_543
*22262 FILLER_136_55
*22335 FILLER_136_551
*22336 FILLER_136_559
*22337 FILLER_136_567
*22338 FILLER_136_569
*22339 FILLER_136_571
*22340 FILLER_136_579
*22341 FILLER_136_587
*22342 FILLER_136_595
*22343 FILLER_136_605
*22344 FILLER_136_613
*22345 FILLER_136_621
*22346 FILLER_136_629
*22263 FILLER_136_63
*22347 FILLER_136_631
*22348 FILLER_136_639
*22349 FILLER_136_647
*22350 FILLER_136_655
*22351 FILLER_136_663
*22352 FILLER_136_673
*22353 FILLER_136_685
*22354 FILLER_136_689
*22355 FILLER_136_691
*22356 FILLER_136_699
*22357 FILLER_136_701
*22264 FILLER_136_71
*22358 FILLER_136_710
*22359 FILLER_136_722
*22360 FILLER_136_726
*22361 FILLER_136_728
*22362 FILLER_136_737
*22363 FILLER_136_741
*22364 FILLER_136_751
*22365 FILLER_136_755
*22366 FILLER_136_765
*22367 FILLER_136_769
*22368 FILLER_136_778
*22369 FILLER_136_782
*22265 FILLER_136_79
*22370 FILLER_136_791
*22371 FILLER_136_795
*22255 FILLER_136_8
*22372 FILLER_136_804
*22373 FILLER_136_808
*22374 FILLER_136_819
*22375 FILLER_136_831
*22376 FILLER_136_843
*22377 FILLER_136_847
*22378 FILLER_136_849
*22379 FILLER_136_858
*22380 FILLER_136_860
*22381 FILLER_136_869
*22266 FILLER_136_87
*22382 FILLER_136_871
*22383 FILLER_136_881
*22384 FILLER_136_885
*22385 FILLER_136_887
*22267 FILLER_136_89
*22386 FILLER_136_896
*22387 FILLER_136_900
*22388 FILLER_136_909
*22268 FILLER_136_91
*22389 FILLER_136_913
*22390 FILLER_136_923
*22391 FILLER_136_927
*22392 FILLER_136_929
*22393 FILLER_136_931
*22394 FILLER_136_939
*22395 FILLER_136_941
*22396 FILLER_136_950
*22397 FILLER_136_954
*22398 FILLER_136_964
*22399 FILLER_136_968
*22400 FILLER_136_970
*22401 FILLER_136_979
*22402 FILLER_136_981
*22269 FILLER_136_99
*22403 FILLER_136_991
*22404 FILLER_136_993
*22566 FILLER_137_0
*22579 FILLER_137_101
*22713 FILLER_137_1014
*22714 FILLER_137_1018
*22715 FILLER_137_1021
*22716 FILLER_137_1029
*22717 FILLER_137_1037
*22718 FILLER_137_1045
*22719 FILLER_137_1054
*22720 FILLER_137_1058
*22721 FILLER_137_1067
*22722 FILLER_137_1079
*22723 FILLER_137_1081
*22724 FILLER_137_1085
*22580 FILLER_137_109
*22725 FILLER_137_1094
*22726 FILLER_137_1098
*22727 FILLER_137_1108
*22728 FILLER_137_1118
*22729 FILLER_137_1126
*22730 FILLER_137_1134
*22731 FILLER_137_1138
*22732 FILLER_137_1149
*22733 FILLER_137_1161
*22734 FILLER_137_1165
*22581 FILLER_137_117
*22735 FILLER_137_1175
*22736 FILLER_137_1177
*22737 FILLER_137_1186
*22582 FILLER_137_119
*22738 FILLER_137_1190
*22739 FILLER_137_1201
*22740 FILLER_137_1205
*22583 FILLER_137_121
*22741 FILLER_137_1215
*22742 FILLER_137_1219
*22743 FILLER_137_1228
*22744 FILLER_137_1238
*22745 FILLER_137_1242
*22746 FILLER_137_1251
*22747 FILLER_137_1259
*22748 FILLER_137_1261
*22749 FILLER_137_1269
*22750 FILLER_137_1271
*22751 FILLER_137_1280
*22752 FILLER_137_1284
*22584 FILLER_137_129
*22753 FILLER_137_1293
*22754 FILLER_137_1305
*22755 FILLER_137_1309
*22756 FILLER_137_1311
*22757 FILLER_137_1321
*22758 FILLER_137_1325
*22759 FILLER_137_1327
*22760 FILLER_137_1336
*22761 FILLER_137_1338
*22762 FILLER_137_1347
*22763 FILLER_137_1351
*22764 FILLER_137_1361
*22765 FILLER_137_1365
*22585 FILLER_137_137
*22766 FILLER_137_1375
*22767 FILLER_137_1379
*22768 FILLER_137_1389
*22769 FILLER_137_1391
*22770 FILLER_137_1400
*22771 FILLER_137_1404
*22772 FILLER_137_1413
*22773 FILLER_137_1421
*22774 FILLER_137_1429
*22775 FILLER_137_1439
*22776 FILLER_137_1441
*22586 FILLER_137_145
*22777 FILLER_137_1453
*22778 FILLER_137_1457
*22779 FILLER_137_1467
*22780 FILLER_137_1491
*22781 FILLER_137_1499
*22782 FILLER_137_1501
*22783 FILLER_137_1509
*22784 FILLER_137_1517
*22785 FILLER_137_1525
*22587 FILLER_137_153
*22786 FILLER_137_1533
*22787 FILLER_137_1541
*22788 FILLER_137_1549
*22789 FILLER_137_1557
*22790 FILLER_137_1559
*22791 FILLER_137_1561
*22792 FILLER_137_1569
*22793 FILLER_137_1577
*22794 FILLER_137_1585
*22795 FILLER_137_1593
*22568 FILLER_137_16
*22796 FILLER_137_1601
*22797 FILLER_137_1609
*22588 FILLER_137_161
*22798 FILLER_137_1617
*22799 FILLER_137_1619
*22800 FILLER_137_1621
*22801 FILLER_137_1629
*22802 FILLER_137_1637
*22803 FILLER_137_1645
*22804 FILLER_137_1653
*22805 FILLER_137_1661
*22806 FILLER_137_1669
*22807 FILLER_137_1677
*22808 FILLER_137_1679
*22809 FILLER_137_1681
*22810 FILLER_137_1689
*22589 FILLER_137_169
*22811 FILLER_137_1697
*22812 FILLER_137_1705
*22813 FILLER_137_1713
*22814 FILLER_137_1721
*22815 FILLER_137_1729
*22816 FILLER_137_1737
*22817 FILLER_137_1739
*22818 FILLER_137_1741
*22819 FILLER_137_1749
*22820 FILLER_137_1757
*22821 FILLER_137_1765
*22590 FILLER_137_177
*22822 FILLER_137_1773
*22823 FILLER_137_1781
*22824 FILLER_137_1789
*22591 FILLER_137_179
*22825 FILLER_137_1797
*22826 FILLER_137_1799
*22827 FILLER_137_1801
*22828 FILLER_137_1809
*22592 FILLER_137_181
*22829 FILLER_137_1817
*22830 FILLER_137_1825
*22831 FILLER_137_1833
*22832 FILLER_137_1841
*22833 FILLER_137_1849
*22834 FILLER_137_1857
*22835 FILLER_137_1859
*22836 FILLER_137_1861
*22837 FILLER_137_1869
*22838 FILLER_137_1877
*22839 FILLER_137_1885
*22593 FILLER_137_189
*22840 FILLER_137_1893
*22841 FILLER_137_1901
*22842 FILLER_137_1909
*22843 FILLER_137_1917
*22844 FILLER_137_1919
*22845 FILLER_137_1921
*22846 FILLER_137_1929
*22847 FILLER_137_1937
*22848 FILLER_137_1945
*22849 FILLER_137_1953
*22850 FILLER_137_1961
*22851 FILLER_137_1969
*22594 FILLER_137_197
*22852 FILLER_137_1977
*22853 FILLER_137_1979
*22854 FILLER_137_1981
*22855 FILLER_137_1989
*22856 FILLER_137_1997
*22857 FILLER_137_2005
*22858 FILLER_137_2013
*22859 FILLER_137_2021
*22860 FILLER_137_2029
*22861 FILLER_137_2037
*22862 FILLER_137_2039
*22863 FILLER_137_2041
*22864 FILLER_137_2049
*22595 FILLER_137_205
*22865 FILLER_137_2057
*22866 FILLER_137_2065
*22867 FILLER_137_2073
*22868 FILLER_137_2081
*22869 FILLER_137_2089
*22870 FILLER_137_2097
*22871 FILLER_137_2099
*22872 FILLER_137_2101
*22873 FILLER_137_2109
*22874 FILLER_137_2117
*22875 FILLER_137_2125
*22876 FILLER_137_2129
*22596 FILLER_137_213
*22597 FILLER_137_221
*22598 FILLER_137_229
*22599 FILLER_137_237
*22600 FILLER_137_239
*22569 FILLER_137_24
*22601 FILLER_137_241
*22602 FILLER_137_249
*22603 FILLER_137_257
*22604 FILLER_137_265
*22605 FILLER_137_273
*22606 FILLER_137_281
*22607 FILLER_137_289
*22608 FILLER_137_297
*22609 FILLER_137_299
*22610 FILLER_137_301
*22611 FILLER_137_309
*22612 FILLER_137_317
*22570 FILLER_137_32
*22613 FILLER_137_325
*22614 FILLER_137_333
*22615 FILLER_137_341
*22616 FILLER_137_349
*22617 FILLER_137_357
*22618 FILLER_137_359
*22619 FILLER_137_361
*22620 FILLER_137_369
*22621 FILLER_137_377
*22622 FILLER_137_385
*22623 FILLER_137_393
*22571 FILLER_137_40
*22624 FILLER_137_401
*22625 FILLER_137_409
*22626 FILLER_137_417
*22627 FILLER_137_419
*22628 FILLER_137_421
*22629 FILLER_137_429
*22630 FILLER_137_437
*22631 FILLER_137_445
*22632 FILLER_137_453
*22633 FILLER_137_461
*22634 FILLER_137_469
*22635 FILLER_137_477
*22636 FILLER_137_479
*22572 FILLER_137_48
*22637 FILLER_137_481
*22638 FILLER_137_489
*22639 FILLER_137_497
*22640 FILLER_137_505
*22641 FILLER_137_507
*22642 FILLER_137_516
*22643 FILLER_137_524
*22644 FILLER_137_532
*22645 FILLER_137_541
*22646 FILLER_137_553
*22647 FILLER_137_557
*22573 FILLER_137_56
*22648 FILLER_137_566
*22649 FILLER_137_568
*22650 FILLER_137_577
*22651 FILLER_137_585
*22652 FILLER_137_593
*22653 FILLER_137_597
*22654 FILLER_137_599
*22655 FILLER_137_601
*22656 FILLER_137_605
*22657 FILLER_137_607
*22574 FILLER_137_61
*22658 FILLER_137_624
*22659 FILLER_137_632
*22660 FILLER_137_640
*22661 FILLER_137_648
*22662 FILLER_137_656
*22663 FILLER_137_661
*22664 FILLER_137_670
*22665 FILLER_137_674
*22666 FILLER_137_683
*22667 FILLER_137_687
*22575 FILLER_137_69
*22668 FILLER_137_697
*22669 FILLER_137_701
*22670 FILLER_137_710
*22671 FILLER_137_718
*22672 FILLER_137_721
*22673 FILLER_137_725
*22674 FILLER_137_734
*22675 FILLER_137_738
*22676 FILLER_137_748
*22677 FILLER_137_752
*22678 FILLER_137_754
*22679 FILLER_137_763
*22680 FILLER_137_767
*22681 FILLER_137_769
*22576 FILLER_137_77
*22682 FILLER_137_778
*22683 FILLER_137_781
*22684 FILLER_137_791
*22567 FILLER_137_8
*22685 FILLER_137_803
*22686 FILLER_137_815
*22687 FILLER_137_819
*22688 FILLER_137_829
*22689 FILLER_137_837
*22690 FILLER_137_839
*22691 FILLER_137_841
*22692 FILLER_137_849
*22577 FILLER_137_85
*22693 FILLER_137_851
*22694 FILLER_137_868
*22695 FILLER_137_876
*22696 FILLER_137_886
*22697 FILLER_137_895
*22698 FILLER_137_899
*22699 FILLER_137_909
*22700 FILLER_137_913
*22701 FILLER_137_923
*22702 FILLER_137_925
*22578 FILLER_137_93
*22703 FILLER_137_934
*22704 FILLER_137_938
*22705 FILLER_137_947
*22706 FILLER_137_951
*22707 FILLER_137_961
*22708 FILLER_137_965
*22709 FILLER_137_974
*22710 FILLER_137_978
*22711 FILLER_137_988
*22712 FILLER_137_996
*22877 FILLER_138_0
*23028 FILLER_138_1007
*23029 FILLER_138_1015
*23030 FILLER_138_1023
*23031 FILLER_138_1031
*23032 FILLER_138_1041
*23033 FILLER_138_1049
*23034 FILLER_138_1051
*23035 FILLER_138_1059
*23036 FILLER_138_1067
*22893 FILLER_138_107
*23037 FILLER_138_1075
*23038 FILLER_138_1083
*23039 FILLER_138_1091
*23040 FILLER_138_1099
*23041 FILLER_138_1107
*23042 FILLER_138_1109
*23043 FILLER_138_1111
*23044 FILLER_138_1119
*23045 FILLER_138_1127
*23046 FILLER_138_1136
*23047 FILLER_138_1144
*22894 FILLER_138_115
*23048 FILLER_138_1152
*23049 FILLER_138_1160
*23050 FILLER_138_1168
*23051 FILLER_138_1171
*23052 FILLER_138_1179
*23053 FILLER_138_1187
*23054 FILLER_138_1195
*23055 FILLER_138_1203
*23056 FILLER_138_1211
*23057 FILLER_138_1219
*23058 FILLER_138_1227
*23059 FILLER_138_1229
*22895 FILLER_138_123
*23060 FILLER_138_1231
*23061 FILLER_138_1239
*23062 FILLER_138_1247
*23063 FILLER_138_1255
*23064 FILLER_138_1267
*23065 FILLER_138_1275
*23066 FILLER_138_1283
*23067 FILLER_138_1287
*23068 FILLER_138_1289
*23069 FILLER_138_1291
*23070 FILLER_138_1299
*23071 FILLER_138_1307
*22896 FILLER_138_131
*23072 FILLER_138_1315
*23073 FILLER_138_1323
*23074 FILLER_138_1331
*23075 FILLER_138_1339
*23076 FILLER_138_1347
*23077 FILLER_138_1349
*23078 FILLER_138_1351
*23079 FILLER_138_1359
*23080 FILLER_138_1367
*23081 FILLER_138_1375
*23082 FILLER_138_1383
*22897 FILLER_138_139
*23083 FILLER_138_1391
*23084 FILLER_138_1399
*23085 FILLER_138_1407
*23086 FILLER_138_1409
*23087 FILLER_138_1411
*23088 FILLER_138_1415
*23089 FILLER_138_1417
*23090 FILLER_138_1426
*23091 FILLER_138_1434
*23092 FILLER_138_1442
*23093 FILLER_138_1450
*23094 FILLER_138_1458
*23095 FILLER_138_1466
*22898 FILLER_138_147
*23096 FILLER_138_1471
*23097 FILLER_138_1479
*23098 FILLER_138_1487
*22899 FILLER_138_149
*23099 FILLER_138_1495
*23100 FILLER_138_1505
*22900 FILLER_138_151
*23101 FILLER_138_1513
*23102 FILLER_138_1521
*23103 FILLER_138_1529
*23104 FILLER_138_1531
*23105 FILLER_138_1539
*23106 FILLER_138_1547
*23107 FILLER_138_1555
*23108 FILLER_138_1563
*23109 FILLER_138_1571
*23110 FILLER_138_1579
*23111 FILLER_138_1587
*23112 FILLER_138_1589
*22901 FILLER_138_159
*23113 FILLER_138_1591
*23114 FILLER_138_1599
*22879 FILLER_138_16
*23115 FILLER_138_1607
*23116 FILLER_138_1615
*23117 FILLER_138_1623
*23118 FILLER_138_1631
*23119 FILLER_138_1639
*23120 FILLER_138_1647
*23121 FILLER_138_1649
*23122 FILLER_138_1651
*23123 FILLER_138_1659
*23124 FILLER_138_1667
*22902 FILLER_138_167
*23125 FILLER_138_1675
*23126 FILLER_138_1683
*23127 FILLER_138_1691
*23128 FILLER_138_1699
*23129 FILLER_138_1707
*23130 FILLER_138_1709
*23131 FILLER_138_1711
*23132 FILLER_138_1719
*23133 FILLER_138_1727
*23134 FILLER_138_1735
*23135 FILLER_138_1743
*22903 FILLER_138_175
*23136 FILLER_138_1751
*23137 FILLER_138_1759
*23138 FILLER_138_1767
*23139 FILLER_138_1769
*23140 FILLER_138_1771
*23141 FILLER_138_1779
*23142 FILLER_138_1787
*23143 FILLER_138_1795
*23144 FILLER_138_1803
*23145 FILLER_138_1811
*23146 FILLER_138_1819
*23147 FILLER_138_1827
*23148 FILLER_138_1829
*22904 FILLER_138_183
*23149 FILLER_138_1831
*23150 FILLER_138_1839
*23151 FILLER_138_1847
*23152 FILLER_138_1855
*23153 FILLER_138_1863
*23154 FILLER_138_1871
*23155 FILLER_138_1879
*23156 FILLER_138_1887
*23157 FILLER_138_1889
*23158 FILLER_138_1891
*23159 FILLER_138_1899
*23160 FILLER_138_1907
*22905 FILLER_138_191
*23161 FILLER_138_1915
*23162 FILLER_138_1923
*23163 FILLER_138_1931
*23164 FILLER_138_1939
*23165 FILLER_138_1947
*23166 FILLER_138_1949
*23167 FILLER_138_1951
*23168 FILLER_138_1959
*23169 FILLER_138_1967
*23170 FILLER_138_1975
*23171 FILLER_138_1983
*22906 FILLER_138_199
*23172 FILLER_138_1991
*23173 FILLER_138_1999
*23174 FILLER_138_2007
*23175 FILLER_138_2009
*23176 FILLER_138_2011
*23177 FILLER_138_2019
*23178 FILLER_138_2027
*23179 FILLER_138_2035
*23180 FILLER_138_2043
*23181 FILLER_138_2051
*23182 FILLER_138_2059
*23183 FILLER_138_2067
*23184 FILLER_138_2069
*22907 FILLER_138_207
*23185 FILLER_138_2071
*23186 FILLER_138_2079
*23187 FILLER_138_2087
*22908 FILLER_138_209
*23188 FILLER_138_2095
*23189 FILLER_138_2103
*22909 FILLER_138_211
*23190 FILLER_138_2111
*23191 FILLER_138_2119
*23192 FILLER_138_2127
*23193 FILLER_138_2129
*22910 FILLER_138_219
*22911 FILLER_138_227
*22912 FILLER_138_235
*22880 FILLER_138_24
*22913 FILLER_138_243
*22914 FILLER_138_251
*22915 FILLER_138_259
*22916 FILLER_138_267
*22917 FILLER_138_269
*22918 FILLER_138_271
*22919 FILLER_138_279
*22881 FILLER_138_28
*22920 FILLER_138_287
*22921 FILLER_138_295
*22922 FILLER_138_303
*22882 FILLER_138_31
*22923 FILLER_138_311
*22924 FILLER_138_319
*22925 FILLER_138_327
*22926 FILLER_138_329
*22927 FILLER_138_331
*22928 FILLER_138_339
*22929 FILLER_138_347
*22930 FILLER_138_355
*22931 FILLER_138_363
*22932 FILLER_138_371
*22933 FILLER_138_379
*22934 FILLER_138_387
*22935 FILLER_138_389
*22883 FILLER_138_39
*22936 FILLER_138_391
*22937 FILLER_138_399
*22938 FILLER_138_407
*22939 FILLER_138_415
*22940 FILLER_138_423
*22941 FILLER_138_431
*22942 FILLER_138_439
*22943 FILLER_138_447
*22944 FILLER_138_449
*22945 FILLER_138_451
*22946 FILLER_138_459
*22947 FILLER_138_467
*22884 FILLER_138_47
*22948 FILLER_138_475
*22949 FILLER_138_483
*22950 FILLER_138_491
*22951 FILLER_138_499
*22952 FILLER_138_507
*22953 FILLER_138_509
*22954 FILLER_138_511
*22955 FILLER_138_519
*22956 FILLER_138_527
*22957 FILLER_138_535
*22958 FILLER_138_543
*22885 FILLER_138_55
*22959 FILLER_138_551
*22960 FILLER_138_559
*22961 FILLER_138_567
*22962 FILLER_138_569
*22963 FILLER_138_571
*22964 FILLER_138_579
*22965 FILLER_138_587
*22966 FILLER_138_595
*22967 FILLER_138_603
*22968 FILLER_138_611
*22969 FILLER_138_619
*22970 FILLER_138_627
*22971 FILLER_138_629
*22886 FILLER_138_63
*22972 FILLER_138_631
*22973 FILLER_138_639
*22974 FILLER_138_647
*22975 FILLER_138_655
*22976 FILLER_138_663
*22977 FILLER_138_671
*22978 FILLER_138_679
*22979 FILLER_138_687
*22980 FILLER_138_689
*22981 FILLER_138_691
*22982 FILLER_138_699
*22983 FILLER_138_707
*22887 FILLER_138_71
*22984 FILLER_138_715
*22985 FILLER_138_723
*22986 FILLER_138_731
*22987 FILLER_138_739
*22988 FILLER_138_747
*22989 FILLER_138_749
*22990 FILLER_138_751
*22991 FILLER_138_759
*22992 FILLER_138_767
*22993 FILLER_138_775
*22994 FILLER_138_783
*22888 FILLER_138_79
*22995 FILLER_138_791
*22996 FILLER_138_799
*22878 FILLER_138_8
*22997 FILLER_138_807
*22998 FILLER_138_809
*22999 FILLER_138_811
*23000 FILLER_138_819
*23001 FILLER_138_827
*23002 FILLER_138_835
*23003 FILLER_138_843
*23004 FILLER_138_851
*23005 FILLER_138_859
*23006 FILLER_138_867
*23007 FILLER_138_869
*22889 FILLER_138_87
*23008 FILLER_138_871
*23009 FILLER_138_879
*23010 FILLER_138_887
*22890 FILLER_138_89
*23011 FILLER_138_895
*23012 FILLER_138_903
*22891 FILLER_138_91
*23013 FILLER_138_911
*23014 FILLER_138_919
*23015 FILLER_138_927
*23016 FILLER_138_929
*23017 FILLER_138_931
*23018 FILLER_138_939
*23019 FILLER_138_947
*23020 FILLER_138_955
*23021 FILLER_138_963
*23022 FILLER_138_971
*23023 FILLER_138_979
*23024 FILLER_138_987
*23025 FILLER_138_989
*22892 FILLER_138_99
*23026 FILLER_138_991
*23027 FILLER_138_999
*23194 FILLER_139_0
*23339 FILLER_139_1001
*23340 FILLER_139_1009
*23207 FILLER_139_101
*23341 FILLER_139_1017
*23342 FILLER_139_1019
*23343 FILLER_139_1021
*23344 FILLER_139_1031
*23345 FILLER_139_1039
*23346 FILLER_139_1047
*23347 FILLER_139_1055
*23348 FILLER_139_1063
*23349 FILLER_139_1071
*23350 FILLER_139_1079
*23351 FILLER_139_1081
*23352 FILLER_139_1089
*23208 FILLER_139_109
*23353 FILLER_139_1097
*23354 FILLER_139_1105
*23355 FILLER_139_1113
*23356 FILLER_139_1121
*23357 FILLER_139_1129
*23358 FILLER_139_1137
*23359 FILLER_139_1139
*23360 FILLER_139_1141
*23361 FILLER_139_1149
*23362 FILLER_139_1157
*23363 FILLER_139_1165
*23209 FILLER_139_117
*23364 FILLER_139_1173
*23365 FILLER_139_1181
*23366 FILLER_139_1189
*23210 FILLER_139_119
*23367 FILLER_139_1197
*23368 FILLER_139_1199
*23369 FILLER_139_1201
*23370 FILLER_139_1209
*23211 FILLER_139_121
*23371 FILLER_139_1217
*23372 FILLER_139_1225
*23373 FILLER_139_1233
*23374 FILLER_139_1241
*23375 FILLER_139_1249
*23376 FILLER_139_1257
*23377 FILLER_139_1259
*23378 FILLER_139_1261
*23379 FILLER_139_1269
*23380 FILLER_139_1277
*23381 FILLER_139_1285
*23212 FILLER_139_129
*23382 FILLER_139_1293
*23383 FILLER_139_1301
*23384 FILLER_139_1309
*23385 FILLER_139_1317
*23386 FILLER_139_1319
*23387 FILLER_139_1321
*23388 FILLER_139_1329
*23389 FILLER_139_1337
*23390 FILLER_139_1345
*23391 FILLER_139_1353
*23392 FILLER_139_1361
*23393 FILLER_139_1369
*23213 FILLER_139_137
*23394 FILLER_139_1377
*23395 FILLER_139_1379
*23396 FILLER_139_1381
*23397 FILLER_139_1389
*23398 FILLER_139_1397
*23399 FILLER_139_1405
*23400 FILLER_139_1414
*23401 FILLER_139_1422
*23402 FILLER_139_1430
*23403 FILLER_139_1438
*23404 FILLER_139_1441
*23405 FILLER_139_1449
*23214 FILLER_139_145
*23406 FILLER_139_1457
*23407 FILLER_139_1465
*23408 FILLER_139_1473
*23409 FILLER_139_1481
*23410 FILLER_139_1489
*23411 FILLER_139_1497
*23412 FILLER_139_1499
*23413 FILLER_139_1501
*23414 FILLER_139_1509
*23415 FILLER_139_1517
*23416 FILLER_139_1525
*23215 FILLER_139_153
*23417 FILLER_139_1533
*23418 FILLER_139_1541
*23419 FILLER_139_1549
*23420 FILLER_139_1557
*23421 FILLER_139_1559
*23422 FILLER_139_1561
*23423 FILLER_139_1569
*23424 FILLER_139_1577
*23425 FILLER_139_1585
*23426 FILLER_139_1593
*23196 FILLER_139_16
*23427 FILLER_139_1601
*23428 FILLER_139_1609
*23216 FILLER_139_161
*23429 FILLER_139_1617
*23430 FILLER_139_1619
*23431 FILLER_139_1621
*23432 FILLER_139_1629
*23433 FILLER_139_1637
*23434 FILLER_139_1645
*23435 FILLER_139_1653
*23436 FILLER_139_1661
*23437 FILLER_139_1669
*23438 FILLER_139_1677
*23439 FILLER_139_1679
*23440 FILLER_139_1681
*23441 FILLER_139_1689
*23217 FILLER_139_169
*23442 FILLER_139_1697
*23443 FILLER_139_1705
*23444 FILLER_139_1713
*23445 FILLER_139_1721
*23446 FILLER_139_1729
*23447 FILLER_139_1737
*23448 FILLER_139_1739
*23449 FILLER_139_1741
*23450 FILLER_139_1749
*23451 FILLER_139_1757
*23452 FILLER_139_1765
*23218 FILLER_139_177
*23453 FILLER_139_1773
*23454 FILLER_139_1781
*23455 FILLER_139_1789
*23219 FILLER_139_179
*23456 FILLER_139_1797
*23457 FILLER_139_1799
*23458 FILLER_139_1801
*23459 FILLER_139_1809
*23220 FILLER_139_181
*23460 FILLER_139_1817
*23461 FILLER_139_1825
*23462 FILLER_139_1833
*23463 FILLER_139_1841
*23464 FILLER_139_1849
*23465 FILLER_139_1857
*23466 FILLER_139_1859
*23467 FILLER_139_1861
*23468 FILLER_139_1869
*23469 FILLER_139_1877
*23470 FILLER_139_1885
*23221 FILLER_139_189
*23471 FILLER_139_1893
*23472 FILLER_139_1901
*23473 FILLER_139_1909
*23474 FILLER_139_1917
*23475 FILLER_139_1919
*23476 FILLER_139_1921
*23477 FILLER_139_1929
*23478 FILLER_139_1937
*23479 FILLER_139_1945
*23480 FILLER_139_1953
*23481 FILLER_139_1961
*23482 FILLER_139_1969
*23222 FILLER_139_197
*23483 FILLER_139_1977
*23484 FILLER_139_1979
*23485 FILLER_139_1981
*23486 FILLER_139_1989
*23487 FILLER_139_1997
*23488 FILLER_139_2005
*23489 FILLER_139_2013
*23490 FILLER_139_2021
*23491 FILLER_139_2029
*23492 FILLER_139_2037
*23493 FILLER_139_2039
*23494 FILLER_139_2041
*23495 FILLER_139_2049
*23223 FILLER_139_205
*23496 FILLER_139_2057
*23497 FILLER_139_2065
*23498 FILLER_139_2073
*23499 FILLER_139_2081
*23500 FILLER_139_2089
*23501 FILLER_139_2097
*23502 FILLER_139_2099
*23503 FILLER_139_2101
*23504 FILLER_139_2109
*23505 FILLER_139_2117
*23506 FILLER_139_2125
*23507 FILLER_139_2129
*23224 FILLER_139_213
*23225 FILLER_139_221
*23226 FILLER_139_229
*23227 FILLER_139_237
*23228 FILLER_139_239
*23197 FILLER_139_24
*23229 FILLER_139_241
*23230 FILLER_139_249
*23231 FILLER_139_257
*23232 FILLER_139_265
*23233 FILLER_139_273
*23234 FILLER_139_281
*23235 FILLER_139_289
*23236 FILLER_139_297
*23237 FILLER_139_299
*23238 FILLER_139_301
*23239 FILLER_139_309
*23240 FILLER_139_317
*23198 FILLER_139_32
*23241 FILLER_139_325
*23242 FILLER_139_333
*23243 FILLER_139_341
*23244 FILLER_139_349
*23245 FILLER_139_357
*23246 FILLER_139_359
*23247 FILLER_139_361
*23248 FILLER_139_369
*23249 FILLER_139_377
*23250 FILLER_139_385
*23251 FILLER_139_393
*23199 FILLER_139_40
*23252 FILLER_139_401
*23253 FILLER_139_409
*23254 FILLER_139_417
*23255 FILLER_139_419
*23256 FILLER_139_421
*23257 FILLER_139_429
*23258 FILLER_139_437
*23259 FILLER_139_445
*23260 FILLER_139_453
*23261 FILLER_139_461
*23262 FILLER_139_469
*23263 FILLER_139_477
*23264 FILLER_139_479
*23200 FILLER_139_48
*23265 FILLER_139_481
*23266 FILLER_139_489
*23267 FILLER_139_497
*23268 FILLER_139_505
*23269 FILLER_139_513
*23270 FILLER_139_521
*23271 FILLER_139_529
*23272 FILLER_139_537
*23273 FILLER_139_539
*23274 FILLER_139_541
*23275 FILLER_139_549
*23276 FILLER_139_557
*23201 FILLER_139_56
*23277 FILLER_139_565
*23278 FILLER_139_573
*23279 FILLER_139_581
*23280 FILLER_139_589
*23281 FILLER_139_597
*23282 FILLER_139_599
*23283 FILLER_139_601
*23284 FILLER_139_609
*23202 FILLER_139_61
*23285 FILLER_139_617
*23286 FILLER_139_625
*23287 FILLER_139_633
*23288 FILLER_139_641
*23289 FILLER_139_649
*23290 FILLER_139_657
*23291 FILLER_139_659
*23292 FILLER_139_661
*23293 FILLER_139_671
*23294 FILLER_139_679
*23295 FILLER_139_687
*23203 FILLER_139_69
*23296 FILLER_139_695
*23297 FILLER_139_703
*23298 FILLER_139_711
*23299 FILLER_139_721
*23300 FILLER_139_729
*23301 FILLER_139_737
*23302 FILLER_139_745
*23303 FILLER_139_753
*23304 FILLER_139_761
*23305 FILLER_139_769
*23204 FILLER_139_77
*23306 FILLER_139_777
*23307 FILLER_139_779
*23308 FILLER_139_781
*23309 FILLER_139_789
*23310 FILLER_139_797
*23195 FILLER_139_8
*23311 FILLER_139_805
*23312 FILLER_139_813
*23313 FILLER_139_821
*23314 FILLER_139_829
*23315 FILLER_139_831
*23316 FILLER_139_841
*23317 FILLER_139_849
*23205 FILLER_139_85
*23318 FILLER_139_857
*23319 FILLER_139_865
*23320 FILLER_139_873
*23321 FILLER_139_881
*23322 FILLER_139_889
*23323 FILLER_139_897
*23324 FILLER_139_899
*23325 FILLER_139_901
*23326 FILLER_139_909
*23327 FILLER_139_917
*23328 FILLER_139_925
*23206 FILLER_139_93
*23329 FILLER_139_933
*23330 FILLER_139_941
*23331 FILLER_139_949
*23332 FILLER_139_957
*23333 FILLER_139_959
*23334 FILLER_139_961
*23335 FILLER_139_969
*23336 FILLER_139_977
*23337 FILLER_139_985
*23338 FILLER_139_993
*6269 FILLER_13_0
*6276 FILLER_13_1549
*6277 FILLER_13_1557
*6278 FILLER_13_1565
*6279 FILLER_13_1573
*6280 FILLER_13_1581
*6281 FILLER_13_1589
*6282 FILLER_13_1597
*6271 FILLER_13_16
*6283 FILLER_13_1605
*6284 FILLER_13_1610
*6285 FILLER_13_1618
*6286 FILLER_13_1626
*6287 FILLER_13_1634
*6288 FILLER_13_1642
*6289 FILLER_13_1650
*6290 FILLER_13_1658
*6291 FILLER_13_1666
*6292 FILLER_13_1668
*6293 FILLER_13_1670
*6294 FILLER_13_1678
*6295 FILLER_13_1686
*6296 FILLER_13_1694
*6297 FILLER_13_1702
*6298 FILLER_13_1710
*6299 FILLER_13_1718
*6300 FILLER_13_1726
*6301 FILLER_13_1728
*6302 FILLER_13_1730
*6303 FILLER_13_1738
*6304 FILLER_13_1746
*6305 FILLER_13_1754
*6306 FILLER_13_1762
*6307 FILLER_13_1770
*6308 FILLER_13_1778
*6309 FILLER_13_1786
*6310 FILLER_13_1788
*6311 FILLER_13_1790
*6312 FILLER_13_1798
*6313 FILLER_13_1806
*6314 FILLER_13_1814
*6315 FILLER_13_1822
*6316 FILLER_13_1830
*6317 FILLER_13_1838
*6318 FILLER_13_1846
*6319 FILLER_13_1848
*6320 FILLER_13_1850
*6321 FILLER_13_1858
*6322 FILLER_13_1866
*6323 FILLER_13_1874
*6324 FILLER_13_1882
*6325 FILLER_13_1890
*6326 FILLER_13_1898
*6327 FILLER_13_1906
*6328 FILLER_13_1908
*6329 FILLER_13_1910
*6330 FILLER_13_1918
*6331 FILLER_13_1926
*6332 FILLER_13_1934
*6333 FILLER_13_1942
*6334 FILLER_13_1950
*6335 FILLER_13_1958
*6336 FILLER_13_1966
*6337 FILLER_13_1968
*6338 FILLER_13_1970
*6339 FILLER_13_1978
*6340 FILLER_13_1986
*6341 FILLER_13_1994
*6342 FILLER_13_2002
*6343 FILLER_13_2010
*6344 FILLER_13_2018
*6345 FILLER_13_2026
*6346 FILLER_13_2028
*6347 FILLER_13_2030
*6348 FILLER_13_2038
*6349 FILLER_13_2046
*6350 FILLER_13_2054
*6351 FILLER_13_2062
*6352 FILLER_13_2070
*6353 FILLER_13_2078
*6354 FILLER_13_2086
*6355 FILLER_13_2088
*6356 FILLER_13_2090
*6357 FILLER_13_2098
*6358 FILLER_13_2106
*6359 FILLER_13_2114
*6360 FILLER_13_2122
*6272 FILLER_13_24
*6273 FILLER_13_32
*6274 FILLER_13_36
*6275 FILLER_13_38
*6270 FILLER_13_8
*23508 FILLER_140_0
*23659 FILLER_140_1007
*23660 FILLER_140_1015
*23661 FILLER_140_1023
*23662 FILLER_140_1031
*23663 FILLER_140_1039
*23664 FILLER_140_1047
*23665 FILLER_140_1049
*23666 FILLER_140_1051
*23667 FILLER_140_1059
*23668 FILLER_140_1067
*23524 FILLER_140_107
*23669 FILLER_140_1075
*23670 FILLER_140_1083
*23671 FILLER_140_1091
*23672 FILLER_140_1099
*23673 FILLER_140_1107
*23674 FILLER_140_1109
*23675 FILLER_140_1111
*23676 FILLER_140_1119
*23677 FILLER_140_1127
*23678 FILLER_140_1135
*23679 FILLER_140_1143
*23525 FILLER_140_115
*23680 FILLER_140_1151
*23681 FILLER_140_1159
*23682 FILLER_140_1167
*23683 FILLER_140_1169
*23684 FILLER_140_1171
*23685 FILLER_140_1179
*23686 FILLER_140_1187
*23687 FILLER_140_1195
*23688 FILLER_140_1203
*23689 FILLER_140_1211
*23690 FILLER_140_1219
*23691 FILLER_140_1227
*23692 FILLER_140_1229
*23526 FILLER_140_123
*23693 FILLER_140_1231
*23694 FILLER_140_1239
*23695 FILLER_140_1247
*23696 FILLER_140_1255
*23697 FILLER_140_1263
*23698 FILLER_140_1271
*23699 FILLER_140_1279
*23700 FILLER_140_1287
*23701 FILLER_140_1289
*23702 FILLER_140_1291
*23703 FILLER_140_1299
*23704 FILLER_140_1307
*23527 FILLER_140_131
*23705 FILLER_140_1315
*23706 FILLER_140_1323
*23707 FILLER_140_1331
*23708 FILLER_140_1339
*23709 FILLER_140_1347
*23710 FILLER_140_1349
*23711 FILLER_140_1351
*23712 FILLER_140_1359
*23713 FILLER_140_1367
*23714 FILLER_140_1375
*23715 FILLER_140_1383
*23528 FILLER_140_139
*23716 FILLER_140_1391
*23717 FILLER_140_1399
*23718 FILLER_140_1407
*23719 FILLER_140_1409
*23720 FILLER_140_1411
*23721 FILLER_140_1419
*23722 FILLER_140_1427
*23723 FILLER_140_1435
*23724 FILLER_140_1443
*23725 FILLER_140_1451
*23726 FILLER_140_1459
*23727 FILLER_140_1467
*23728 FILLER_140_1469
*23529 FILLER_140_147
*23729 FILLER_140_1471
*23730 FILLER_140_1479
*23731 FILLER_140_1487
*23530 FILLER_140_149
*23732 FILLER_140_1495
*23733 FILLER_140_1503
*23531 FILLER_140_151
*23734 FILLER_140_1511
*23735 FILLER_140_1519
*23736 FILLER_140_1527
*23737 FILLER_140_1529
*23738 FILLER_140_1531
*23739 FILLER_140_1539
*23740 FILLER_140_1547
*23741 FILLER_140_1555
*23742 FILLER_140_1563
*23743 FILLER_140_1571
*23744 FILLER_140_1579
*23745 FILLER_140_1587
*23746 FILLER_140_1589
*23532 FILLER_140_159
*23747 FILLER_140_1591
*23748 FILLER_140_1599
*23510 FILLER_140_16
*23749 FILLER_140_1607
*23750 FILLER_140_1615
*23751 FILLER_140_1623
*23752 FILLER_140_1631
*23753 FILLER_140_1639
*23754 FILLER_140_1647
*23755 FILLER_140_1649
*23756 FILLER_140_1651
*23757 FILLER_140_1659
*23758 FILLER_140_1667
*23533 FILLER_140_167
*23759 FILLER_140_1675
*23760 FILLER_140_1683
*23761 FILLER_140_1691
*23762 FILLER_140_1699
*23763 FILLER_140_1707
*23764 FILLER_140_1709
*23765 FILLER_140_1711
*23766 FILLER_140_1719
*23767 FILLER_140_1727
*23768 FILLER_140_1735
*23769 FILLER_140_1743
*23534 FILLER_140_175
*23770 FILLER_140_1751
*23771 FILLER_140_1759
*23772 FILLER_140_1767
*23773 FILLER_140_1769
*23774 FILLER_140_1771
*23775 FILLER_140_1779
*23776 FILLER_140_1787
*23777 FILLER_140_1795
*23778 FILLER_140_1803
*23779 FILLER_140_1811
*23780 FILLER_140_1819
*23781 FILLER_140_1827
*23782 FILLER_140_1829
*23535 FILLER_140_183
*23783 FILLER_140_1831
*23784 FILLER_140_1839
*23785 FILLER_140_1847
*23786 FILLER_140_1855
*23787 FILLER_140_1863
*23788 FILLER_140_1871
*23789 FILLER_140_1879
*23790 FILLER_140_1887
*23791 FILLER_140_1889
*23792 FILLER_140_1891
*23793 FILLER_140_1899
*23794 FILLER_140_1907
*23536 FILLER_140_191
*23795 FILLER_140_1915
*23796 FILLER_140_1923
*23797 FILLER_140_1931
*23798 FILLER_140_1939
*23799 FILLER_140_1947
*23800 FILLER_140_1949
*23801 FILLER_140_1951
*23802 FILLER_140_1959
*23803 FILLER_140_1967
*23804 FILLER_140_1975
*23805 FILLER_140_1983
*23537 FILLER_140_199
*23806 FILLER_140_1991
*23807 FILLER_140_1999
*23808 FILLER_140_2007
*23809 FILLER_140_2009
*23810 FILLER_140_2011
*23811 FILLER_140_2019
*23812 FILLER_140_2027
*23813 FILLER_140_2035
*23814 FILLER_140_2043
*23815 FILLER_140_2051
*23816 FILLER_140_2059
*23817 FILLER_140_2067
*23818 FILLER_140_2069
*23538 FILLER_140_207
*23819 FILLER_140_2071
*23820 FILLER_140_2079
*23821 FILLER_140_2087
*23539 FILLER_140_209
*23822 FILLER_140_2095
*23823 FILLER_140_2103
*23540 FILLER_140_211
*23824 FILLER_140_2111
*23825 FILLER_140_2119
*23826 FILLER_140_2127
*23827 FILLER_140_2129
*23541 FILLER_140_219
*23542 FILLER_140_227
*23543 FILLER_140_235
*23511 FILLER_140_24
*23544 FILLER_140_243
*23545 FILLER_140_251
*23546 FILLER_140_259
*23547 FILLER_140_267
*23548 FILLER_140_269
*23549 FILLER_140_271
*23550 FILLER_140_279
*23512 FILLER_140_28
*23551 FILLER_140_287
*23552 FILLER_140_295
*23553 FILLER_140_303
*23513 FILLER_140_31
*23554 FILLER_140_311
*23555 FILLER_140_319
*23556 FILLER_140_327
*23557 FILLER_140_329
*23558 FILLER_140_331
*23559 FILLER_140_339
*23560 FILLER_140_347
*23561 FILLER_140_355
*23562 FILLER_140_363
*23563 FILLER_140_371
*23564 FILLER_140_379
*23565 FILLER_140_387
*23566 FILLER_140_389
*23514 FILLER_140_39
*23567 FILLER_140_391
*23568 FILLER_140_399
*23569 FILLER_140_407
*23570 FILLER_140_415
*23571 FILLER_140_423
*23572 FILLER_140_431
*23573 FILLER_140_439
*23574 FILLER_140_447
*23575 FILLER_140_449
*23576 FILLER_140_451
*23577 FILLER_140_459
*23578 FILLER_140_467
*23515 FILLER_140_47
*23579 FILLER_140_475
*23580 FILLER_140_483
*23581 FILLER_140_491
*23582 FILLER_140_499
*23583 FILLER_140_507
*23584 FILLER_140_509
*23585 FILLER_140_511
*23586 FILLER_140_519
*23587 FILLER_140_527
*23588 FILLER_140_535
*23589 FILLER_140_543
*23516 FILLER_140_55
*23590 FILLER_140_551
*23591 FILLER_140_559
*23592 FILLER_140_567
*23593 FILLER_140_569
*23594 FILLER_140_571
*23595 FILLER_140_579
*23596 FILLER_140_587
*23597 FILLER_140_595
*23598 FILLER_140_603
*23599 FILLER_140_611
*23600 FILLER_140_619
*23601 FILLER_140_627
*23602 FILLER_140_629
*23517 FILLER_140_63
*23603 FILLER_140_631
*23604 FILLER_140_639
*23605 FILLER_140_647
*23606 FILLER_140_655
*23607 FILLER_140_663
*23608 FILLER_140_671
*23609 FILLER_140_679
*23610 FILLER_140_687
*23611 FILLER_140_689
*23612 FILLER_140_691
*23613 FILLER_140_699
*23614 FILLER_140_707
*23518 FILLER_140_71
*23615 FILLER_140_715
*23616 FILLER_140_723
*23617 FILLER_140_731
*23618 FILLER_140_739
*23619 FILLER_140_747
*23620 FILLER_140_749
*23621 FILLER_140_751
*23622 FILLER_140_759
*23623 FILLER_140_767
*23624 FILLER_140_775
*23625 FILLER_140_783
*23519 FILLER_140_79
*23626 FILLER_140_791
*23627 FILLER_140_799
*23509 FILLER_140_8
*23628 FILLER_140_807
*23629 FILLER_140_809
*23630 FILLER_140_811
*23631 FILLER_140_819
*23632 FILLER_140_827
*23633 FILLER_140_835
*23634 FILLER_140_843
*23635 FILLER_140_851
*23636 FILLER_140_859
*23637 FILLER_140_867
*23638 FILLER_140_869
*23520 FILLER_140_87
*23639 FILLER_140_871
*23640 FILLER_140_879
*23641 FILLER_140_887
*23521 FILLER_140_89
*23642 FILLER_140_895
*23643 FILLER_140_903
*23522 FILLER_140_91
*23644 FILLER_140_911
*23645 FILLER_140_919
*23646 FILLER_140_927
*23647 FILLER_140_929
*23648 FILLER_140_931
*23649 FILLER_140_939
*23650 FILLER_140_947
*23651 FILLER_140_955
*23652 FILLER_140_963
*23653 FILLER_140_971
*23654 FILLER_140_979
*23655 FILLER_140_987
*23656 FILLER_140_989
*23523 FILLER_140_99
*23657 FILLER_140_991
*23658 FILLER_140_999
*23828 FILLER_141_0
*23976 FILLER_141_1001
*23977 FILLER_141_1009
*23841 FILLER_141_101
*23978 FILLER_141_1017
*23979 FILLER_141_1019
*23980 FILLER_141_1021
*23981 FILLER_141_1029
*23982 FILLER_141_1037
*23983 FILLER_141_1045
*23984 FILLER_141_1053
*23985 FILLER_141_1061
*23986 FILLER_141_1069
*23987 FILLER_141_1077
*23988 FILLER_141_1079
*23989 FILLER_141_1081
*23990 FILLER_141_1089
*23842 FILLER_141_109
*23991 FILLER_141_1097
*23992 FILLER_141_1105
*23993 FILLER_141_1113
*23994 FILLER_141_1121
*23995 FILLER_141_1129
*23996 FILLER_141_1137
*23997 FILLER_141_1139
*23998 FILLER_141_1141
*23999 FILLER_141_1149
*24000 FILLER_141_1157
*24001 FILLER_141_1165
*23843 FILLER_141_117
*24002 FILLER_141_1173
*24003 FILLER_141_1181
*24004 FILLER_141_1189
*23844 FILLER_141_119
*24005 FILLER_141_1197
*24006 FILLER_141_1199
*24007 FILLER_141_1201
*24008 FILLER_141_1209
*23845 FILLER_141_121
*24009 FILLER_141_1217
*24010 FILLER_141_1225
*24011 FILLER_141_1233
*24012 FILLER_141_1241
*24013 FILLER_141_1249
*24014 FILLER_141_1257
*24015 FILLER_141_1259
*24016 FILLER_141_1261
*24017 FILLER_141_1269
*24018 FILLER_141_1277
*24019 FILLER_141_1285
*23846 FILLER_141_129
*24020 FILLER_141_1293
*24021 FILLER_141_1301
*24022 FILLER_141_1309
*24023 FILLER_141_1317
*24024 FILLER_141_1319
*24025 FILLER_141_1321
*24026 FILLER_141_1329
*24027 FILLER_141_1337
*24028 FILLER_141_1345
*24029 FILLER_141_1353
*24030 FILLER_141_1361
*24031 FILLER_141_1369
*23847 FILLER_141_137
*24032 FILLER_141_1377
*24033 FILLER_141_1379
*24034 FILLER_141_1381
*24035 FILLER_141_1389
*24036 FILLER_141_1397
*24037 FILLER_141_1405
*24038 FILLER_141_1413
*24039 FILLER_141_1421
*24040 FILLER_141_1429
*24041 FILLER_141_1437
*24042 FILLER_141_1439
*24043 FILLER_141_1441
*24044 FILLER_141_1449
*23848 FILLER_141_145
*24045 FILLER_141_1457
*24046 FILLER_141_1465
*24047 FILLER_141_1473
*24048 FILLER_141_1481
*24049 FILLER_141_1489
*24050 FILLER_141_1497
*24051 FILLER_141_1499
*24052 FILLER_141_1501
*24053 FILLER_141_1509
*24054 FILLER_141_1517
*24055 FILLER_141_1525
*23849 FILLER_141_153
*24056 FILLER_141_1533
*24057 FILLER_141_1541
*24058 FILLER_141_1549
*24059 FILLER_141_1557
*24060 FILLER_141_1559
*24061 FILLER_141_1561
*24062 FILLER_141_1569
*24063 FILLER_141_1577
*24064 FILLER_141_1585
*24065 FILLER_141_1593
*23830 FILLER_141_16
*24066 FILLER_141_1601
*24067 FILLER_141_1609
*23850 FILLER_141_161
*24068 FILLER_141_1617
*24069 FILLER_141_1619
*24070 FILLER_141_1621
*24071 FILLER_141_1629
*24072 FILLER_141_1637
*24073 FILLER_141_1645
*24074 FILLER_141_1653
*24075 FILLER_141_1661
*24076 FILLER_141_1669
*24077 FILLER_141_1677
*24078 FILLER_141_1679
*24079 FILLER_141_1681
*24080 FILLER_141_1689
*23851 FILLER_141_169
*24081 FILLER_141_1697
*24082 FILLER_141_1705
*24083 FILLER_141_1713
*24084 FILLER_141_1721
*24085 FILLER_141_1729
*24086 FILLER_141_1737
*24087 FILLER_141_1739
*24088 FILLER_141_1741
*24089 FILLER_141_1749
*24090 FILLER_141_1757
*24091 FILLER_141_1765
*23852 FILLER_141_177
*24092 FILLER_141_1773
*24093 FILLER_141_1781
*24094 FILLER_141_1789
*23853 FILLER_141_179
*24095 FILLER_141_1797
*24096 FILLER_141_1799
*24097 FILLER_141_1801
*24098 FILLER_141_1809
*23854 FILLER_141_181
*24099 FILLER_141_1817
*24100 FILLER_141_1825
*24101 FILLER_141_1833
*24102 FILLER_141_1841
*24103 FILLER_141_1849
*24104 FILLER_141_1857
*24105 FILLER_141_1859
*24106 FILLER_141_1861
*24107 FILLER_141_1869
*24108 FILLER_141_1877
*24109 FILLER_141_1885
*23855 FILLER_141_189
*24110 FILLER_141_1893
*24111 FILLER_141_1901
*24112 FILLER_141_1909
*24113 FILLER_141_1917
*24114 FILLER_141_1919
*24115 FILLER_141_1921
*24116 FILLER_141_1929
*24117 FILLER_141_1937
*24118 FILLER_141_1945
*24119 FILLER_141_1953
*24120 FILLER_141_1961
*24121 FILLER_141_1969
*23856 FILLER_141_197
*24122 FILLER_141_1977
*24123 FILLER_141_1979
*24124 FILLER_141_1981
*24125 FILLER_141_1989
*24126 FILLER_141_1997
*24127 FILLER_141_2005
*24128 FILLER_141_2013
*24129 FILLER_141_2021
*24130 FILLER_141_2029
*24131 FILLER_141_2037
*24132 FILLER_141_2039
*24133 FILLER_141_2041
*24134 FILLER_141_2049
*23857 FILLER_141_205
*24135 FILLER_141_2057
*24136 FILLER_141_2065
*24137 FILLER_141_2073
*24138 FILLER_141_2081
*24139 FILLER_141_2089
*24140 FILLER_141_2097
*24141 FILLER_141_2099
*24142 FILLER_141_2101
*24143 FILLER_141_2109
*24144 FILLER_141_2117
*24145 FILLER_141_2125
*24146 FILLER_141_2129
*23858 FILLER_141_213
*23859 FILLER_141_221
*23860 FILLER_141_229
*23861 FILLER_141_237
*23862 FILLER_141_239
*23831 FILLER_141_24
*23863 FILLER_141_241
*23864 FILLER_141_249
*23865 FILLER_141_257
*23866 FILLER_141_265
*23867 FILLER_141_273
*23868 FILLER_141_281
*23869 FILLER_141_289
*23870 FILLER_141_297
*23871 FILLER_141_299
*23872 FILLER_141_301
*23873 FILLER_141_309
*23874 FILLER_141_317
*23832 FILLER_141_32
*23875 FILLER_141_325
*23876 FILLER_141_333
*23877 FILLER_141_341
*23878 FILLER_141_349
*23879 FILLER_141_357
*23880 FILLER_141_359
*23881 FILLER_141_361
*23882 FILLER_141_369
*23883 FILLER_141_377
*23884 FILLER_141_385
*23885 FILLER_141_393
*23833 FILLER_141_40
*23886 FILLER_141_401
*23887 FILLER_141_409
*23888 FILLER_141_417
*23889 FILLER_141_419
*23890 FILLER_141_421
*23891 FILLER_141_429
*23892 FILLER_141_437
*23893 FILLER_141_445
*23894 FILLER_141_453
*23895 FILLER_141_461
*23896 FILLER_141_469
*23897 FILLER_141_477
*23898 FILLER_141_479
*23834 FILLER_141_48
*23899 FILLER_141_481
*23900 FILLER_141_489
*23901 FILLER_141_497
*23902 FILLER_141_505
*23903 FILLER_141_513
*23904 FILLER_141_521
*23905 FILLER_141_529
*23906 FILLER_141_537
*23907 FILLER_141_539
*23908 FILLER_141_541
*23909 FILLER_141_549
*23910 FILLER_141_557
*23835 FILLER_141_56
*23911 FILLER_141_565
*23912 FILLER_141_573
*23913 FILLER_141_581
*23914 FILLER_141_589
*23915 FILLER_141_597
*23916 FILLER_141_599
*23917 FILLER_141_601
*23918 FILLER_141_609
*23836 FILLER_141_61
*23919 FILLER_141_617
*23920 FILLER_141_625
*23921 FILLER_141_633
*23922 FILLER_141_641
*23923 FILLER_141_649
*23924 FILLER_141_657
*23925 FILLER_141_659
*23926 FILLER_141_661
*23927 FILLER_141_669
*23928 FILLER_141_677
*23929 FILLER_141_685
*23837 FILLER_141_69
*23930 FILLER_141_693
*23931 FILLER_141_701
*23932 FILLER_141_709
*23933 FILLER_141_717
*23934 FILLER_141_719
*23935 FILLER_141_721
*23936 FILLER_141_729
*23937 FILLER_141_737
*23938 FILLER_141_745
*23939 FILLER_141_753
*23940 FILLER_141_761
*23941 FILLER_141_769
*23838 FILLER_141_77
*23942 FILLER_141_777
*23943 FILLER_141_779
*23944 FILLER_141_781
*23945 FILLER_141_789
*23946 FILLER_141_797
*23829 FILLER_141_8
*23947 FILLER_141_805
*23948 FILLER_141_813
*23949 FILLER_141_821
*23950 FILLER_141_829
*23951 FILLER_141_837
*23952 FILLER_141_839
*23953 FILLER_141_841
*23954 FILLER_141_849
*23839 FILLER_141_85
*23955 FILLER_141_857
*23956 FILLER_141_865
*23957 FILLER_141_873
*23958 FILLER_141_881
*23959 FILLER_141_889
*23960 FILLER_141_897
*23961 FILLER_141_899
*23962 FILLER_141_901
*23963 FILLER_141_909
*23964 FILLER_141_917
*23965 FILLER_141_925
*23840 FILLER_141_93
*23966 FILLER_141_933
*23967 FILLER_141_941
*23968 FILLER_141_949
*23969 FILLER_141_957
*23970 FILLER_141_959
*23971 FILLER_141_961
*23972 FILLER_141_969
*23973 FILLER_141_977
*23974 FILLER_141_985
*23975 FILLER_141_993
*24147 FILLER_142_0
*24298 FILLER_142_1007
*24299 FILLER_142_1015
*24300 FILLER_142_1023
*24301 FILLER_142_1031
*24302 FILLER_142_1039
*24303 FILLER_142_1047
*24304 FILLER_142_1049
*24305 FILLER_142_1051
*24306 FILLER_142_1059
*24307 FILLER_142_1067
*24163 FILLER_142_107
*24308 FILLER_142_1075
*24309 FILLER_142_1083
*24310 FILLER_142_1091
*24311 FILLER_142_1099
*24312 FILLER_142_1107
*24313 FILLER_142_1109
*24314 FILLER_142_1111
*24315 FILLER_142_1119
*24316 FILLER_142_1127
*24317 FILLER_142_1135
*24318 FILLER_142_1143
*24164 FILLER_142_115
*24319 FILLER_142_1151
*24320 FILLER_142_1159
*24321 FILLER_142_1167
*24322 FILLER_142_1169
*24323 FILLER_142_1171
*24324 FILLER_142_1179
*24325 FILLER_142_1187
*24326 FILLER_142_1195
*24327 FILLER_142_1203
*24328 FILLER_142_1211
*24329 FILLER_142_1219
*24330 FILLER_142_1227
*24331 FILLER_142_1229
*24165 FILLER_142_123
*24332 FILLER_142_1231
*24333 FILLER_142_1239
*24334 FILLER_142_1247
*24335 FILLER_142_1255
*24336 FILLER_142_1263
*24337 FILLER_142_1271
*24338 FILLER_142_1279
*24339 FILLER_142_1287
*24340 FILLER_142_1289
*24341 FILLER_142_1291
*24342 FILLER_142_1299
*24343 FILLER_142_1307
*24166 FILLER_142_131
*24344 FILLER_142_1315
*24345 FILLER_142_1323
*24346 FILLER_142_1331
*24347 FILLER_142_1339
*24348 FILLER_142_1347
*24349 FILLER_142_1349
*24350 FILLER_142_1351
*24351 FILLER_142_1359
*24352 FILLER_142_1367
*24353 FILLER_142_1375
*24354 FILLER_142_1383
*24167 FILLER_142_139
*24355 FILLER_142_1391
*24356 FILLER_142_1399
*24357 FILLER_142_1407
*24358 FILLER_142_1409
*24359 FILLER_142_1411
*24360 FILLER_142_1419
*24361 FILLER_142_1427
*24362 FILLER_142_1435
*24363 FILLER_142_1443
*24364 FILLER_142_1451
*24365 FILLER_142_1459
*24366 FILLER_142_1467
*24367 FILLER_142_1469
*24168 FILLER_142_147
*24368 FILLER_142_1471
*24369 FILLER_142_1479
*24370 FILLER_142_1487
*24169 FILLER_142_149
*24371 FILLER_142_1495
*24372 FILLER_142_1503
*24170 FILLER_142_151
*24373 FILLER_142_1511
*24374 FILLER_142_1519
*24375 FILLER_142_1527
*24376 FILLER_142_1529
*24377 FILLER_142_1531
*24378 FILLER_142_1539
*24379 FILLER_142_1547
*24380 FILLER_142_1555
*24381 FILLER_142_1563
*24382 FILLER_142_1571
*24383 FILLER_142_1579
*24384 FILLER_142_1587
*24385 FILLER_142_1589
*24171 FILLER_142_159
*24386 FILLER_142_1591
*24387 FILLER_142_1599
*24149 FILLER_142_16
*24388 FILLER_142_1607
*24389 FILLER_142_1615
*24390 FILLER_142_1623
*24391 FILLER_142_1631
*24392 FILLER_142_1639
*24393 FILLER_142_1647
*24394 FILLER_142_1649
*24395 FILLER_142_1651
*24396 FILLER_142_1659
*24397 FILLER_142_1667
*24172 FILLER_142_167
*24398 FILLER_142_1675
*24399 FILLER_142_1683
*24400 FILLER_142_1691
*24401 FILLER_142_1699
*24402 FILLER_142_1707
*24403 FILLER_142_1709
*24404 FILLER_142_1711
*24405 FILLER_142_1719
*24406 FILLER_142_1727
*24407 FILLER_142_1735
*24408 FILLER_142_1743
*24173 FILLER_142_175
*24409 FILLER_142_1751
*24410 FILLER_142_1759
*24411 FILLER_142_1767
*24412 FILLER_142_1769
*24413 FILLER_142_1771
*24414 FILLER_142_1779
*24415 FILLER_142_1787
*24416 FILLER_142_1795
*24417 FILLER_142_1803
*24418 FILLER_142_1811
*24419 FILLER_142_1819
*24420 FILLER_142_1827
*24421 FILLER_142_1829
*24174 FILLER_142_183
*24422 FILLER_142_1831
*24423 FILLER_142_1839
*24424 FILLER_142_1847
*24425 FILLER_142_1855
*24426 FILLER_142_1863
*24427 FILLER_142_1871
*24428 FILLER_142_1879
*24429 FILLER_142_1887
*24430 FILLER_142_1889
*24431 FILLER_142_1891
*24432 FILLER_142_1899
*24433 FILLER_142_1907
*24175 FILLER_142_191
*24434 FILLER_142_1915
*24435 FILLER_142_1923
*24436 FILLER_142_1931
*24437 FILLER_142_1939
*24438 FILLER_142_1947
*24439 FILLER_142_1949
*24440 FILLER_142_1951
*24441 FILLER_142_1959
*24442 FILLER_142_1967
*24443 FILLER_142_1975
*24444 FILLER_142_1983
*24176 FILLER_142_199
*24445 FILLER_142_1991
*24446 FILLER_142_1999
*24447 FILLER_142_2007
*24448 FILLER_142_2009
*24449 FILLER_142_2011
*24450 FILLER_142_2019
*24451 FILLER_142_2027
*24452 FILLER_142_2035
*24453 FILLER_142_2043
*24454 FILLER_142_2051
*24455 FILLER_142_2059
*24456 FILLER_142_2067
*24457 FILLER_142_2069
*24177 FILLER_142_207
*24458 FILLER_142_2071
*24459 FILLER_142_2079
*24460 FILLER_142_2087
*24178 FILLER_142_209
*24461 FILLER_142_2095
*24462 FILLER_142_2103
*24179 FILLER_142_211
*24463 FILLER_142_2111
*24464 FILLER_142_2119
*24465 FILLER_142_2127
*24466 FILLER_142_2129
*24180 FILLER_142_219
*24181 FILLER_142_227
*24182 FILLER_142_235
*24150 FILLER_142_24
*24183 FILLER_142_243
*24184 FILLER_142_251
*24185 FILLER_142_259
*24186 FILLER_142_267
*24187 FILLER_142_269
*24188 FILLER_142_271
*24189 FILLER_142_279
*24151 FILLER_142_28
*24190 FILLER_142_287
*24191 FILLER_142_295
*24192 FILLER_142_303
*24152 FILLER_142_31
*24193 FILLER_142_311
*24194 FILLER_142_319
*24195 FILLER_142_327
*24196 FILLER_142_329
*24197 FILLER_142_331
*24198 FILLER_142_339
*24199 FILLER_142_347
*24200 FILLER_142_355
*24201 FILLER_142_363
*24202 FILLER_142_371
*24203 FILLER_142_379
*24204 FILLER_142_387
*24205 FILLER_142_389
*24153 FILLER_142_39
*24206 FILLER_142_391
*24207 FILLER_142_399
*24208 FILLER_142_407
*24209 FILLER_142_415
*24210 FILLER_142_423
*24211 FILLER_142_431
*24212 FILLER_142_439
*24213 FILLER_142_447
*24214 FILLER_142_449
*24215 FILLER_142_451
*24216 FILLER_142_459
*24217 FILLER_142_467
*24154 FILLER_142_47
*24218 FILLER_142_475
*24219 FILLER_142_483
*24220 FILLER_142_491
*24221 FILLER_142_499
*24222 FILLER_142_507
*24223 FILLER_142_509
*24224 FILLER_142_511
*24225 FILLER_142_519
*24226 FILLER_142_527
*24227 FILLER_142_535
*24228 FILLER_142_543
*24155 FILLER_142_55
*24229 FILLER_142_551
*24230 FILLER_142_559
*24231 FILLER_142_567
*24232 FILLER_142_569
*24233 FILLER_142_571
*24234 FILLER_142_579
*24235 FILLER_142_587
*24236 FILLER_142_595
*24237 FILLER_142_603
*24238 FILLER_142_611
*24239 FILLER_142_619
*24240 FILLER_142_627
*24241 FILLER_142_629
*24156 FILLER_142_63
*24242 FILLER_142_631
*24243 FILLER_142_639
*24244 FILLER_142_647
*24245 FILLER_142_655
*24246 FILLER_142_663
*24247 FILLER_142_671
*24248 FILLER_142_679
*24249 FILLER_142_687
*24250 FILLER_142_689
*24251 FILLER_142_691
*24252 FILLER_142_699
*24253 FILLER_142_707
*24157 FILLER_142_71
*24254 FILLER_142_715
*24255 FILLER_142_723
*24256 FILLER_142_731
*24257 FILLER_142_739
*24258 FILLER_142_747
*24259 FILLER_142_749
*24260 FILLER_142_751
*24261 FILLER_142_759
*24262 FILLER_142_767
*24263 FILLER_142_775
*24264 FILLER_142_783
*24158 FILLER_142_79
*24265 FILLER_142_791
*24266 FILLER_142_799
*24148 FILLER_142_8
*24267 FILLER_142_807
*24268 FILLER_142_809
*24269 FILLER_142_811
*24270 FILLER_142_819
*24271 FILLER_142_827
*24272 FILLER_142_835
*24273 FILLER_142_843
*24274 FILLER_142_851
*24275 FILLER_142_859
*24276 FILLER_142_867
*24277 FILLER_142_869
*24159 FILLER_142_87
*24278 FILLER_142_871
*24279 FILLER_142_879
*24280 FILLER_142_887
*24160 FILLER_142_89
*24281 FILLER_142_895
*24282 FILLER_142_903
*24161 FILLER_142_91
*24283 FILLER_142_911
*24284 FILLER_142_919
*24285 FILLER_142_927
*24286 FILLER_142_929
*24287 FILLER_142_931
*24288 FILLER_142_939
*24289 FILLER_142_947
*24290 FILLER_142_955
*24291 FILLER_142_963
*24292 FILLER_142_971
*24293 FILLER_142_979
*24294 FILLER_142_987
*24295 FILLER_142_989
*24162 FILLER_142_99
*24296 FILLER_142_991
*24297 FILLER_142_999
*24467 FILLER_143_0
*24615 FILLER_143_1001
*24616 FILLER_143_1009
*24480 FILLER_143_101
*24617 FILLER_143_1017
*24618 FILLER_143_1019
*24619 FILLER_143_1021
*24620 FILLER_143_1029
*24621 FILLER_143_1037
*24622 FILLER_143_1045
*24623 FILLER_143_1053
*24624 FILLER_143_1061
*24625 FILLER_143_1069
*24626 FILLER_143_1077
*24627 FILLER_143_1079
*24628 FILLER_143_1081
*24629 FILLER_143_1089
*24481 FILLER_143_109
*24630 FILLER_143_1097
*24631 FILLER_143_1105
*24632 FILLER_143_1113
*24633 FILLER_143_1121
*24634 FILLER_143_1129
*24635 FILLER_143_1137
*24636 FILLER_143_1139
*24637 FILLER_143_1141
*24638 FILLER_143_1149
*24639 FILLER_143_1157
*24640 FILLER_143_1165
*24482 FILLER_143_117
*24641 FILLER_143_1173
*24642 FILLER_143_1181
*24643 FILLER_143_1189
*24483 FILLER_143_119
*24644 FILLER_143_1197
*24645 FILLER_143_1199
*24646 FILLER_143_1201
*24647 FILLER_143_1209
*24484 FILLER_143_121
*24648 FILLER_143_1217
*24649 FILLER_143_1225
*24650 FILLER_143_1233
*24651 FILLER_143_1241
*24652 FILLER_143_1249
*24653 FILLER_143_1257
*24654 FILLER_143_1259
*24655 FILLER_143_1261
*24656 FILLER_143_1269
*24657 FILLER_143_1277
*24658 FILLER_143_1285
*24485 FILLER_143_129
*24659 FILLER_143_1293
*24660 FILLER_143_1301
*24661 FILLER_143_1309
*24662 FILLER_143_1317
*24663 FILLER_143_1319
*24664 FILLER_143_1321
*24665 FILLER_143_1329
*24666 FILLER_143_1337
*24667 FILLER_143_1345
*24668 FILLER_143_1353
*24669 FILLER_143_1361
*24670 FILLER_143_1369
*24486 FILLER_143_137
*24671 FILLER_143_1377
*24672 FILLER_143_1379
*24673 FILLER_143_1381
*24674 FILLER_143_1389
*24675 FILLER_143_1397
*24676 FILLER_143_1405
*24677 FILLER_143_1413
*24678 FILLER_143_1421
*24679 FILLER_143_1429
*24680 FILLER_143_1437
*24681 FILLER_143_1439
*24682 FILLER_143_1441
*24683 FILLER_143_1449
*24487 FILLER_143_145
*24684 FILLER_143_1457
*24685 FILLER_143_1465
*24686 FILLER_143_1473
*24687 FILLER_143_1481
*24688 FILLER_143_1489
*24689 FILLER_143_1497
*24690 FILLER_143_1499
*24691 FILLER_143_1501
*24692 FILLER_143_1509
*24693 FILLER_143_1517
*24694 FILLER_143_1525
*24488 FILLER_143_153
*24695 FILLER_143_1533
*24696 FILLER_143_1541
*24697 FILLER_143_1549
*24698 FILLER_143_1557
*24699 FILLER_143_1559
*24700 FILLER_143_1561
*24701 FILLER_143_1569
*24702 FILLER_143_1577
*24703 FILLER_143_1585
*24704 FILLER_143_1593
*24469 FILLER_143_16
*24705 FILLER_143_1601
*24706 FILLER_143_1609
*24489 FILLER_143_161
*24707 FILLER_143_1617
*24708 FILLER_143_1619
*24709 FILLER_143_1621
*24710 FILLER_143_1629
*24711 FILLER_143_1637
*24712 FILLER_143_1645
*24713 FILLER_143_1653
*24714 FILLER_143_1661
*24715 FILLER_143_1669
*24716 FILLER_143_1677
*24717 FILLER_143_1679
*24718 FILLER_143_1681
*24719 FILLER_143_1689
*24490 FILLER_143_169
*24720 FILLER_143_1697
*24721 FILLER_143_1705
*24722 FILLER_143_1713
*24723 FILLER_143_1721
*24724 FILLER_143_1729
*24725 FILLER_143_1737
*24726 FILLER_143_1739
*24727 FILLER_143_1741
*24728 FILLER_143_1749
*24729 FILLER_143_1757
*24730 FILLER_143_1765
*24491 FILLER_143_177
*24731 FILLER_143_1773
*24732 FILLER_143_1781
*24733 FILLER_143_1789
*24492 FILLER_143_179
*24734 FILLER_143_1797
*24735 FILLER_143_1799
*24736 FILLER_143_1801
*24737 FILLER_143_1809
*24493 FILLER_143_181
*24738 FILLER_143_1817
*24739 FILLER_143_1825
*24740 FILLER_143_1833
*24741 FILLER_143_1841
*24742 FILLER_143_1849
*24743 FILLER_143_1857
*24744 FILLER_143_1859
*24745 FILLER_143_1861
*24746 FILLER_143_1869
*24747 FILLER_143_1877
*24748 FILLER_143_1885
*24494 FILLER_143_189
*24749 FILLER_143_1893
*24750 FILLER_143_1901
*24751 FILLER_143_1909
*24752 FILLER_143_1917
*24753 FILLER_143_1919
*24754 FILLER_143_1921
*24755 FILLER_143_1929
*24756 FILLER_143_1937
*24757 FILLER_143_1945
*24758 FILLER_143_1953
*24759 FILLER_143_1961
*24760 FILLER_143_1969
*24495 FILLER_143_197
*24761 FILLER_143_1977
*24762 FILLER_143_1979
*24763 FILLER_143_1981
*24764 FILLER_143_1989
*24765 FILLER_143_1997
*24766 FILLER_143_2005
*24767 FILLER_143_2013
*24768 FILLER_143_2021
*24769 FILLER_143_2029
*24770 FILLER_143_2037
*24771 FILLER_143_2039
*24772 FILLER_143_2041
*24773 FILLER_143_2049
*24496 FILLER_143_205
*24774 FILLER_143_2057
*24775 FILLER_143_2065
*24776 FILLER_143_2073
*24777 FILLER_143_2081
*24778 FILLER_143_2089
*24779 FILLER_143_2097
*24780 FILLER_143_2099
*24781 FILLER_143_2101
*24782 FILLER_143_2109
*24783 FILLER_143_2117
*24784 FILLER_143_2125
*24785 FILLER_143_2129
*24497 FILLER_143_213
*24498 FILLER_143_221
*24499 FILLER_143_229
*24500 FILLER_143_237
*24501 FILLER_143_239
*24470 FILLER_143_24
*24502 FILLER_143_241
*24503 FILLER_143_249
*24504 FILLER_143_257
*24505 FILLER_143_265
*24506 FILLER_143_273
*24507 FILLER_143_281
*24508 FILLER_143_289
*24509 FILLER_143_297
*24510 FILLER_143_299
*24511 FILLER_143_301
*24512 FILLER_143_309
*24513 FILLER_143_317
*24471 FILLER_143_32
*24514 FILLER_143_325
*24515 FILLER_143_333
*24516 FILLER_143_341
*24517 FILLER_143_349
*24518 FILLER_143_357
*24519 FILLER_143_359
*24520 FILLER_143_361
*24521 FILLER_143_369
*24522 FILLER_143_377
*24523 FILLER_143_385
*24524 FILLER_143_393
*24472 FILLER_143_40
*24525 FILLER_143_401
*24526 FILLER_143_409
*24527 FILLER_143_417
*24528 FILLER_143_419
*24529 FILLER_143_421
*24530 FILLER_143_429
*24531 FILLER_143_437
*24532 FILLER_143_445
*24533 FILLER_143_453
*24534 FILLER_143_461
*24535 FILLER_143_469
*24536 FILLER_143_477
*24537 FILLER_143_479
*24473 FILLER_143_48
*24538 FILLER_143_481
*24539 FILLER_143_489
*24540 FILLER_143_497
*24541 FILLER_143_505
*24542 FILLER_143_513
*24543 FILLER_143_521
*24544 FILLER_143_529
*24545 FILLER_143_537
*24546 FILLER_143_539
*24547 FILLER_143_541
*24548 FILLER_143_549
*24549 FILLER_143_557
*24474 FILLER_143_56
*24550 FILLER_143_565
*24551 FILLER_143_573
*24552 FILLER_143_581
*24553 FILLER_143_589
*24554 FILLER_143_597
*24555 FILLER_143_599
*24556 FILLER_143_601
*24557 FILLER_143_609
*24475 FILLER_143_61
*24558 FILLER_143_617
*24559 FILLER_143_625
*24560 FILLER_143_633
*24561 FILLER_143_641
*24562 FILLER_143_649
*24563 FILLER_143_657
*24564 FILLER_143_659
*24565 FILLER_143_661
*24566 FILLER_143_669
*24567 FILLER_143_677
*24568 FILLER_143_685
*24476 FILLER_143_69
*24569 FILLER_143_693
*24570 FILLER_143_701
*24571 FILLER_143_709
*24572 FILLER_143_717
*24573 FILLER_143_719
*24574 FILLER_143_721
*24575 FILLER_143_729
*24576 FILLER_143_737
*24577 FILLER_143_745
*24578 FILLER_143_753
*24579 FILLER_143_761
*24580 FILLER_143_769
*24477 FILLER_143_77
*24581 FILLER_143_777
*24582 FILLER_143_779
*24583 FILLER_143_781
*24584 FILLER_143_789
*24585 FILLER_143_797
*24468 FILLER_143_8
*24586 FILLER_143_805
*24587 FILLER_143_813
*24588 FILLER_143_821
*24589 FILLER_143_829
*24590 FILLER_143_837
*24591 FILLER_143_839
*24592 FILLER_143_841
*24593 FILLER_143_849
*24478 FILLER_143_85
*24594 FILLER_143_857
*24595 FILLER_143_865
*24596 FILLER_143_873
*24597 FILLER_143_881
*24598 FILLER_143_889
*24599 FILLER_143_897
*24600 FILLER_143_899
*24601 FILLER_143_901
*24602 FILLER_143_909
*24603 FILLER_143_917
*24604 FILLER_143_925
*24479 FILLER_143_93
*24605 FILLER_143_933
*24606 FILLER_143_941
*24607 FILLER_143_949
*24608 FILLER_143_957
*24609 FILLER_143_959
*24610 FILLER_143_961
*24611 FILLER_143_969
*24612 FILLER_143_977
*24613 FILLER_143_985
*24614 FILLER_143_993
*24786 FILLER_144_0
*24937 FILLER_144_1007
*24938 FILLER_144_1015
*24939 FILLER_144_1023
*24940 FILLER_144_1031
*24941 FILLER_144_1039
*24942 FILLER_144_1047
*24943 FILLER_144_1049
*24944 FILLER_144_1051
*24945 FILLER_144_1059
*24946 FILLER_144_1067
*24802 FILLER_144_107
*24947 FILLER_144_1075
*24948 FILLER_144_1083
*24949 FILLER_144_1091
*24950 FILLER_144_1099
*24951 FILLER_144_1107
*24952 FILLER_144_1109
*24953 FILLER_144_1111
*24954 FILLER_144_1119
*24955 FILLER_144_1127
*24956 FILLER_144_1135
*24957 FILLER_144_1143
*24803 FILLER_144_115
*24958 FILLER_144_1151
*24959 FILLER_144_1159
*24960 FILLER_144_1167
*24961 FILLER_144_1169
*24962 FILLER_144_1171
*24963 FILLER_144_1179
*24964 FILLER_144_1187
*24965 FILLER_144_1195
*24966 FILLER_144_1203
*24967 FILLER_144_1211
*24968 FILLER_144_1219
*24969 FILLER_144_1227
*24970 FILLER_144_1229
*24804 FILLER_144_123
*24971 FILLER_144_1231
*24972 FILLER_144_1239
*24973 FILLER_144_1247
*24974 FILLER_144_1255
*24975 FILLER_144_1263
*24976 FILLER_144_1271
*24977 FILLER_144_1279
*24978 FILLER_144_1287
*24979 FILLER_144_1289
*24980 FILLER_144_1291
*24981 FILLER_144_1299
*24982 FILLER_144_1307
*24805 FILLER_144_131
*24983 FILLER_144_1315
*24984 FILLER_144_1323
*24985 FILLER_144_1331
*24986 FILLER_144_1339
*24987 FILLER_144_1347
*24988 FILLER_144_1349
*24989 FILLER_144_1351
*24990 FILLER_144_1359
*24991 FILLER_144_1367
*24992 FILLER_144_1375
*24993 FILLER_144_1383
*24806 FILLER_144_139
*24994 FILLER_144_1391
*24995 FILLER_144_1399
*24996 FILLER_144_1407
*24997 FILLER_144_1409
*24998 FILLER_144_1411
*24999 FILLER_144_1419
*25000 FILLER_144_1427
*25001 FILLER_144_1435
*25002 FILLER_144_1443
*25003 FILLER_144_1451
*25004 FILLER_144_1459
*25005 FILLER_144_1467
*25006 FILLER_144_1469
*24807 FILLER_144_147
*25007 FILLER_144_1471
*25008 FILLER_144_1479
*25009 FILLER_144_1487
*24808 FILLER_144_149
*25010 FILLER_144_1495
*25011 FILLER_144_1503
*24809 FILLER_144_151
*25012 FILLER_144_1511
*25013 FILLER_144_1519
*25014 FILLER_144_1527
*25015 FILLER_144_1529
*25016 FILLER_144_1531
*25017 FILLER_144_1539
*25018 FILLER_144_1547
*25019 FILLER_144_1555
*25020 FILLER_144_1563
*25021 FILLER_144_1571
*25022 FILLER_144_1579
*25023 FILLER_144_1587
*25024 FILLER_144_1589
*24810 FILLER_144_159
*25025 FILLER_144_1591
*25026 FILLER_144_1599
*24788 FILLER_144_16
*25027 FILLER_144_1607
*25028 FILLER_144_1615
*25029 FILLER_144_1623
*25030 FILLER_144_1631
*25031 FILLER_144_1639
*25032 FILLER_144_1647
*25033 FILLER_144_1649
*25034 FILLER_144_1651
*25035 FILLER_144_1659
*25036 FILLER_144_1667
*24811 FILLER_144_167
*25037 FILLER_144_1675
*25038 FILLER_144_1683
*25039 FILLER_144_1691
*25040 FILLER_144_1699
*25041 FILLER_144_1707
*25042 FILLER_144_1709
*25043 FILLER_144_1711
*25044 FILLER_144_1719
*25045 FILLER_144_1727
*25046 FILLER_144_1735
*25047 FILLER_144_1743
*24812 FILLER_144_175
*25048 FILLER_144_1751
*25049 FILLER_144_1759
*25050 FILLER_144_1767
*25051 FILLER_144_1769
*25052 FILLER_144_1771
*25053 FILLER_144_1779
*25054 FILLER_144_1787
*25055 FILLER_144_1795
*25056 FILLER_144_1803
*25057 FILLER_144_1811
*25058 FILLER_144_1819
*25059 FILLER_144_1827
*25060 FILLER_144_1829
*24813 FILLER_144_183
*25061 FILLER_144_1831
*25062 FILLER_144_1839
*25063 FILLER_144_1847
*25064 FILLER_144_1855
*25065 FILLER_144_1863
*25066 FILLER_144_1871
*25067 FILLER_144_1879
*25068 FILLER_144_1887
*25069 FILLER_144_1889
*25070 FILLER_144_1891
*25071 FILLER_144_1899
*25072 FILLER_144_1907
*24814 FILLER_144_191
*25073 FILLER_144_1915
*25074 FILLER_144_1923
*25075 FILLER_144_1931
*25076 FILLER_144_1939
*25077 FILLER_144_1947
*25078 FILLER_144_1949
*25079 FILLER_144_1951
*25080 FILLER_144_1959
*25081 FILLER_144_1967
*25082 FILLER_144_1975
*25083 FILLER_144_1983
*24815 FILLER_144_199
*25084 FILLER_144_1991
*25085 FILLER_144_1999
*25086 FILLER_144_2007
*25087 FILLER_144_2009
*25088 FILLER_144_2011
*25089 FILLER_144_2019
*25090 FILLER_144_2027
*25091 FILLER_144_2035
*25092 FILLER_144_2043
*25093 FILLER_144_2051
*25094 FILLER_144_2059
*25095 FILLER_144_2067
*25096 FILLER_144_2069
*24816 FILLER_144_207
*25097 FILLER_144_2071
*25098 FILLER_144_2079
*25099 FILLER_144_2087
*24817 FILLER_144_209
*25100 FILLER_144_2095
*25101 FILLER_144_2103
*24818 FILLER_144_211
*25102 FILLER_144_2111
*25103 FILLER_144_2119
*25104 FILLER_144_2127
*25105 FILLER_144_2129
*24819 FILLER_144_219
*24820 FILLER_144_227
*24821 FILLER_144_235
*24789 FILLER_144_24
*24822 FILLER_144_243
*24823 FILLER_144_251
*24824 FILLER_144_259
*24825 FILLER_144_267
*24826 FILLER_144_269
*24827 FILLER_144_271
*24828 FILLER_144_279
*24790 FILLER_144_28
*24829 FILLER_144_287
*24830 FILLER_144_295
*24831 FILLER_144_303
*24791 FILLER_144_31
*24832 FILLER_144_311
*24833 FILLER_144_319
*24834 FILLER_144_327
*24835 FILLER_144_329
*24836 FILLER_144_331
*24837 FILLER_144_339
*24838 FILLER_144_347
*24839 FILLER_144_355
*24840 FILLER_144_363
*24841 FILLER_144_371
*24842 FILLER_144_379
*24843 FILLER_144_387
*24844 FILLER_144_389
*24792 FILLER_144_39
*24845 FILLER_144_391
*24846 FILLER_144_399
*24847 FILLER_144_407
*24848 FILLER_144_415
*24849 FILLER_144_423
*24850 FILLER_144_431
*24851 FILLER_144_439
*24852 FILLER_144_447
*24853 FILLER_144_449
*24854 FILLER_144_451
*24855 FILLER_144_459
*24856 FILLER_144_467
*24793 FILLER_144_47
*24857 FILLER_144_475
*24858 FILLER_144_483
*24859 FILLER_144_491
*24860 FILLER_144_499
*24861 FILLER_144_507
*24862 FILLER_144_509
*24863 FILLER_144_511
*24864 FILLER_144_519
*24865 FILLER_144_527
*24866 FILLER_144_535
*24867 FILLER_144_543
*24794 FILLER_144_55
*24868 FILLER_144_551
*24869 FILLER_144_559
*24870 FILLER_144_567
*24871 FILLER_144_569
*24872 FILLER_144_571
*24873 FILLER_144_579
*24874 FILLER_144_587
*24875 FILLER_144_595
*24876 FILLER_144_603
*24877 FILLER_144_611
*24878 FILLER_144_619
*24879 FILLER_144_627
*24880 FILLER_144_629
*24795 FILLER_144_63
*24881 FILLER_144_631
*24882 FILLER_144_639
*24883 FILLER_144_647
*24884 FILLER_144_655
*24885 FILLER_144_663
*24886 FILLER_144_671
*24887 FILLER_144_679
*24888 FILLER_144_687
*24889 FILLER_144_689
*24890 FILLER_144_691
*24891 FILLER_144_699
*24892 FILLER_144_707
*24796 FILLER_144_71
*24893 FILLER_144_715
*24894 FILLER_144_723
*24895 FILLER_144_731
*24896 FILLER_144_739
*24897 FILLER_144_747
*24898 FILLER_144_749
*24899 FILLER_144_751
*24900 FILLER_144_759
*24901 FILLER_144_767
*24902 FILLER_144_775
*24903 FILLER_144_783
*24797 FILLER_144_79
*24904 FILLER_144_791
*24905 FILLER_144_799
*24787 FILLER_144_8
*24906 FILLER_144_807
*24907 FILLER_144_809
*24908 FILLER_144_811
*24909 FILLER_144_819
*24910 FILLER_144_827
*24911 FILLER_144_835
*24912 FILLER_144_843
*24913 FILLER_144_851
*24914 FILLER_144_859
*24915 FILLER_144_867
*24916 FILLER_144_869
*24798 FILLER_144_87
*24917 FILLER_144_871
*24918 FILLER_144_879
*24919 FILLER_144_887
*24799 FILLER_144_89
*24920 FILLER_144_895
*24921 FILLER_144_903
*24800 FILLER_144_91
*24922 FILLER_144_911
*24923 FILLER_144_919
*24924 FILLER_144_927
*24925 FILLER_144_929
*24926 FILLER_144_931
*24927 FILLER_144_939
*24928 FILLER_144_947
*24929 FILLER_144_955
*24930 FILLER_144_963
*24931 FILLER_144_971
*24932 FILLER_144_979
*24933 FILLER_144_987
*24934 FILLER_144_989
*24801 FILLER_144_99
*24935 FILLER_144_991
*24936 FILLER_144_999
*25106 FILLER_145_0
*25254 FILLER_145_1001
*25255 FILLER_145_1009
*25119 FILLER_145_101
*25256 FILLER_145_1017
*25257 FILLER_145_1019
*25258 FILLER_145_1021
*25259 FILLER_145_1029
*25260 FILLER_145_1037
*25261 FILLER_145_1045
*25262 FILLER_145_1053
*25263 FILLER_145_1061
*25264 FILLER_145_1069
*25265 FILLER_145_1077
*25266 FILLER_145_1079
*25267 FILLER_145_1081
*25268 FILLER_145_1089
*25120 FILLER_145_109
*25269 FILLER_145_1097
*25270 FILLER_145_1105
*25271 FILLER_145_1113
*25272 FILLER_145_1121
*25273 FILLER_145_1129
*25274 FILLER_145_1137
*25275 FILLER_145_1139
*25276 FILLER_145_1141
*25277 FILLER_145_1149
*25278 FILLER_145_1157
*25279 FILLER_145_1165
*25121 FILLER_145_117
*25280 FILLER_145_1173
*25281 FILLER_145_1181
*25282 FILLER_145_1189
*25122 FILLER_145_119
*25283 FILLER_145_1197
*25284 FILLER_145_1199
*25285 FILLER_145_1201
*25286 FILLER_145_1209
*25123 FILLER_145_121
*25287 FILLER_145_1217
*25288 FILLER_145_1225
*25289 FILLER_145_1233
*25290 FILLER_145_1241
*25291 FILLER_145_1249
*25292 FILLER_145_1257
*25293 FILLER_145_1259
*25294 FILLER_145_1261
*25295 FILLER_145_1269
*25296 FILLER_145_1277
*25297 FILLER_145_1285
*25124 FILLER_145_129
*25298 FILLER_145_1293
*25299 FILLER_145_1301
*25300 FILLER_145_1309
*25301 FILLER_145_1317
*25302 FILLER_145_1319
*25303 FILLER_145_1321
*25304 FILLER_145_1329
*25305 FILLER_145_1337
*25306 FILLER_145_1345
*25307 FILLER_145_1353
*25308 FILLER_145_1361
*25309 FILLER_145_1369
*25125 FILLER_145_137
*25310 FILLER_145_1377
*25311 FILLER_145_1379
*25312 FILLER_145_1381
*25313 FILLER_145_1389
*25314 FILLER_145_1397
*25315 FILLER_145_1405
*25316 FILLER_145_1413
*25317 FILLER_145_1421
*25318 FILLER_145_1429
*25319 FILLER_145_1437
*25320 FILLER_145_1439
*25321 FILLER_145_1441
*25322 FILLER_145_1449
*25126 FILLER_145_145
*25323 FILLER_145_1457
*25324 FILLER_145_1465
*25325 FILLER_145_1473
*25326 FILLER_145_1481
*25327 FILLER_145_1489
*25328 FILLER_145_1497
*25329 FILLER_145_1499
*25330 FILLER_145_1501
*25331 FILLER_145_1509
*25332 FILLER_145_1517
*25333 FILLER_145_1525
*25127 FILLER_145_153
*25334 FILLER_145_1533
*25335 FILLER_145_1541
*25336 FILLER_145_1549
*25337 FILLER_145_1557
*25338 FILLER_145_1559
*25339 FILLER_145_1561
*25340 FILLER_145_1569
*25341 FILLER_145_1577
*25342 FILLER_145_1585
*25343 FILLER_145_1593
*25108 FILLER_145_16
*25344 FILLER_145_1601
*25345 FILLER_145_1609
*25128 FILLER_145_161
*25346 FILLER_145_1617
*25347 FILLER_145_1619
*25348 FILLER_145_1621
*25349 FILLER_145_1629
*25350 FILLER_145_1637
*25351 FILLER_145_1645
*25352 FILLER_145_1653
*25353 FILLER_145_1661
*25354 FILLER_145_1669
*25355 FILLER_145_1677
*25356 FILLER_145_1679
*25357 FILLER_145_1681
*25358 FILLER_145_1689
*25129 FILLER_145_169
*25359 FILLER_145_1697
*25360 FILLER_145_1705
*25361 FILLER_145_1713
*25362 FILLER_145_1721
*25363 FILLER_145_1729
*25364 FILLER_145_1737
*25365 FILLER_145_1739
*25366 FILLER_145_1741
*25367 FILLER_145_1749
*25368 FILLER_145_1757
*25369 FILLER_145_1765
*25130 FILLER_145_177
*25370 FILLER_145_1773
*25371 FILLER_145_1781
*25372 FILLER_145_1789
*25131 FILLER_145_179
*25373 FILLER_145_1797
*25374 FILLER_145_1799
*25375 FILLER_145_1801
*25376 FILLER_145_1809
*25132 FILLER_145_181
*25377 FILLER_145_1817
*25378 FILLER_145_1825
*25379 FILLER_145_1833
*25380 FILLER_145_1841
*25381 FILLER_145_1849
*25382 FILLER_145_1857
*25383 FILLER_145_1859
*25384 FILLER_145_1861
*25385 FILLER_145_1869
*25386 FILLER_145_1877
*25387 FILLER_145_1885
*25133 FILLER_145_189
*25388 FILLER_145_1893
*25389 FILLER_145_1901
*25390 FILLER_145_1909
*25391 FILLER_145_1917
*25392 FILLER_145_1919
*25393 FILLER_145_1921
*25394 FILLER_145_1929
*25395 FILLER_145_1937
*25396 FILLER_145_1945
*25397 FILLER_145_1953
*25398 FILLER_145_1961
*25399 FILLER_145_1969
*25134 FILLER_145_197
*25400 FILLER_145_1977
*25401 FILLER_145_1979
*25402 FILLER_145_1981
*25403 FILLER_145_1989
*25404 FILLER_145_1997
*25405 FILLER_145_2005
*25406 FILLER_145_2013
*25407 FILLER_145_2021
*25408 FILLER_145_2029
*25409 FILLER_145_2037
*25410 FILLER_145_2039
*25411 FILLER_145_2041
*25412 FILLER_145_2049
*25135 FILLER_145_205
*25413 FILLER_145_2057
*25414 FILLER_145_2065
*25415 FILLER_145_2073
*25416 FILLER_145_2081
*25417 FILLER_145_2089
*25418 FILLER_145_2097
*25419 FILLER_145_2099
*25420 FILLER_145_2101
*25421 FILLER_145_2109
*25422 FILLER_145_2117
*25423 FILLER_145_2125
*25424 FILLER_145_2129
*25136 FILLER_145_213
*25137 FILLER_145_221
*25138 FILLER_145_229
*25139 FILLER_145_237
*25140 FILLER_145_239
*25109 FILLER_145_24
*25141 FILLER_145_241
*25142 FILLER_145_249
*25143 FILLER_145_257
*25144 FILLER_145_265
*25145 FILLER_145_273
*25146 FILLER_145_281
*25147 FILLER_145_289
*25148 FILLER_145_297
*25149 FILLER_145_299
*25150 FILLER_145_301
*25151 FILLER_145_309
*25152 FILLER_145_317
*25110 FILLER_145_32
*25153 FILLER_145_325
*25154 FILLER_145_333
*25155 FILLER_145_341
*25156 FILLER_145_349
*25157 FILLER_145_357
*25158 FILLER_145_359
*25159 FILLER_145_361
*25160 FILLER_145_369
*25161 FILLER_145_377
*25162 FILLER_145_385
*25163 FILLER_145_393
*25111 FILLER_145_40
*25164 FILLER_145_401
*25165 FILLER_145_409
*25166 FILLER_145_417
*25167 FILLER_145_419
*25168 FILLER_145_421
*25169 FILLER_145_429
*25170 FILLER_145_437
*25171 FILLER_145_445
*25172 FILLER_145_453
*25173 FILLER_145_461
*25174 FILLER_145_469
*25175 FILLER_145_477
*25176 FILLER_145_479
*25112 FILLER_145_48
*25177 FILLER_145_481
*25178 FILLER_145_489
*25179 FILLER_145_497
*25180 FILLER_145_505
*25181 FILLER_145_513
*25182 FILLER_145_521
*25183 FILLER_145_529
*25184 FILLER_145_537
*25185 FILLER_145_539
*25186 FILLER_145_541
*25187 FILLER_145_549
*25188 FILLER_145_557
*25113 FILLER_145_56
*25189 FILLER_145_565
*25190 FILLER_145_573
*25191 FILLER_145_581
*25192 FILLER_145_589
*25193 FILLER_145_597
*25194 FILLER_145_599
*25195 FILLER_145_601
*25196 FILLER_145_609
*25114 FILLER_145_61
*25197 FILLER_145_617
*25198 FILLER_145_625
*25199 FILLER_145_633
*25200 FILLER_145_641
*25201 FILLER_145_649
*25202 FILLER_145_657
*25203 FILLER_145_659
*25204 FILLER_145_661
*25205 FILLER_145_669
*25206 FILLER_145_677
*25207 FILLER_145_685
*25115 FILLER_145_69
*25208 FILLER_145_693
*25209 FILLER_145_701
*25210 FILLER_145_709
*25211 FILLER_145_717
*25212 FILLER_145_719
*25213 FILLER_145_721
*25214 FILLER_145_729
*25215 FILLER_145_737
*25216 FILLER_145_745
*25217 FILLER_145_753
*25218 FILLER_145_761
*25219 FILLER_145_769
*25116 FILLER_145_77
*25220 FILLER_145_777
*25221 FILLER_145_779
*25222 FILLER_145_781
*25223 FILLER_145_789
*25224 FILLER_145_797
*25107 FILLER_145_8
*25225 FILLER_145_805
*25226 FILLER_145_813
*25227 FILLER_145_821
*25228 FILLER_145_829
*25229 FILLER_145_837
*25230 FILLER_145_839
*25231 FILLER_145_841
*25232 FILLER_145_849
*25117 FILLER_145_85
*25233 FILLER_145_857
*25234 FILLER_145_865
*25235 FILLER_145_873
*25236 FILLER_145_881
*25237 FILLER_145_889
*25238 FILLER_145_897
*25239 FILLER_145_899
*25240 FILLER_145_901
*25241 FILLER_145_909
*25242 FILLER_145_917
*25243 FILLER_145_925
*25118 FILLER_145_93
*25244 FILLER_145_933
*25245 FILLER_145_941
*25246 FILLER_145_949
*25247 FILLER_145_957
*25248 FILLER_145_959
*25249 FILLER_145_961
*25250 FILLER_145_969
*25251 FILLER_145_977
*25252 FILLER_145_985
*25253 FILLER_145_993
*25425 FILLER_146_0
*25575 FILLER_146_1007
*25576 FILLER_146_1015
*25577 FILLER_146_1023
*25578 FILLER_146_1031
*25579 FILLER_146_1039
*25580 FILLER_146_1047
*25581 FILLER_146_1049
*25582 FILLER_146_1051
*25583 FILLER_146_1059
*25584 FILLER_146_1067
*25441 FILLER_146_107
*25585 FILLER_146_1075
*25586 FILLER_146_1083
*25587 FILLER_146_1091
*25588 FILLER_146_1099
*25589 FILLER_146_1107
*25590 FILLER_146_1109
*25591 FILLER_146_1111
*25592 FILLER_146_1119
*25593 FILLER_146_1127
*25594 FILLER_146_1135
*25595 FILLER_146_1143
*25442 FILLER_146_115
*25596 FILLER_146_1151
*25597 FILLER_146_1159
*25598 FILLER_146_1167
*25599 FILLER_146_1169
*25600 FILLER_146_1171
*25601 FILLER_146_1179
*25602 FILLER_146_1187
*25603 FILLER_146_1195
*25604 FILLER_146_1203
*25605 FILLER_146_1211
*25606 FILLER_146_1219
*25607 FILLER_146_1227
*25608 FILLER_146_1229
*25443 FILLER_146_123
*25609 FILLER_146_1231
*25610 FILLER_146_1239
*25611 FILLER_146_1247
*25612 FILLER_146_1255
*25613 FILLER_146_1263
*25614 FILLER_146_1271
*25615 FILLER_146_1279
*25616 FILLER_146_1287
*25617 FILLER_146_1289
*25618 FILLER_146_1291
*25619 FILLER_146_1299
*25620 FILLER_146_1307
*25444 FILLER_146_131
*25621 FILLER_146_1315
*25622 FILLER_146_1323
*25623 FILLER_146_1331
*25624 FILLER_146_1339
*25625 FILLER_146_1347
*25626 FILLER_146_1349
*25627 FILLER_146_1351
*25628 FILLER_146_1359
*25629 FILLER_146_1367
*25630 FILLER_146_1375
*25631 FILLER_146_1383
*25445 FILLER_146_139
*25632 FILLER_146_1391
*25633 FILLER_146_1399
*25634 FILLER_146_1407
*25635 FILLER_146_1409
*25636 FILLER_146_1411
*25637 FILLER_146_1419
*25638 FILLER_146_1427
*25639 FILLER_146_1435
*25640 FILLER_146_1443
*25641 FILLER_146_1451
*25642 FILLER_146_1459
*25643 FILLER_146_1467
*25644 FILLER_146_1469
*25446 FILLER_146_147
*25645 FILLER_146_1471
*25646 FILLER_146_1479
*25647 FILLER_146_1487
*25447 FILLER_146_149
*25648 FILLER_146_1495
*25649 FILLER_146_1503
*25448 FILLER_146_151
*25650 FILLER_146_1511
*25651 FILLER_146_1519
*25652 FILLER_146_1527
*25653 FILLER_146_1529
*25654 FILLER_146_1531
*25655 FILLER_146_1539
*25656 FILLER_146_1547
*25657 FILLER_146_1555
*25658 FILLER_146_1563
*25659 FILLER_146_1571
*25660 FILLER_146_1579
*25661 FILLER_146_1587
*25662 FILLER_146_1589
*25449 FILLER_146_159
*25663 FILLER_146_1591
*25664 FILLER_146_1599
*25427 FILLER_146_16
*25665 FILLER_146_1607
*25666 FILLER_146_1615
*25667 FILLER_146_1623
*25668 FILLER_146_1631
*25669 FILLER_146_1639
*25670 FILLER_146_1647
*25671 FILLER_146_1649
*25672 FILLER_146_1651
*25673 FILLER_146_1659
*25674 FILLER_146_1667
*25450 FILLER_146_167
*25675 FILLER_146_1675
*25676 FILLER_146_1683
*25677 FILLER_146_1691
*25678 FILLER_146_1699
*25679 FILLER_146_1707
*25680 FILLER_146_1709
*25681 FILLER_146_1711
*25682 FILLER_146_1719
*25683 FILLER_146_1727
*25684 FILLER_146_1735
*25685 FILLER_146_1743
*25451 FILLER_146_175
*25686 FILLER_146_1751
*25687 FILLER_146_1759
*25688 FILLER_146_1767
*25689 FILLER_146_1769
*25690 FILLER_146_1771
*25691 FILLER_146_1779
*25692 FILLER_146_1787
*25693 FILLER_146_1795
*25694 FILLER_146_1803
*25695 FILLER_146_1811
*25696 FILLER_146_1819
*25697 FILLER_146_1827
*25698 FILLER_146_1829
*25452 FILLER_146_183
*25699 FILLER_146_1831
*25700 FILLER_146_1839
*25701 FILLER_146_1847
*25702 FILLER_146_1855
*25703 FILLER_146_1863
*25704 FILLER_146_1871
*25705 FILLER_146_1879
*25706 FILLER_146_1887
*25707 FILLER_146_1889
*25708 FILLER_146_1891
*25709 FILLER_146_1899
*25710 FILLER_146_1907
*25453 FILLER_146_191
*25711 FILLER_146_1915
*25712 FILLER_146_1923
*25713 FILLER_146_1931
*25714 FILLER_146_1939
*25715 FILLER_146_1947
*25716 FILLER_146_1949
*25717 FILLER_146_1951
*25718 FILLER_146_1959
*25719 FILLER_146_1967
*25720 FILLER_146_1975
*25721 FILLER_146_1983
*25454 FILLER_146_199
*25722 FILLER_146_1991
*25723 FILLER_146_1999
*25724 FILLER_146_2007
*25725 FILLER_146_2009
*25726 FILLER_146_2011
*25727 FILLER_146_2019
*25728 FILLER_146_2027
*25729 FILLER_146_2035
*25730 FILLER_146_2043
*25731 FILLER_146_2051
*25732 FILLER_146_2059
*25733 FILLER_146_2067
*25734 FILLER_146_2069
*25455 FILLER_146_207
*25735 FILLER_146_2071
*25736 FILLER_146_2079
*25737 FILLER_146_2087
*25456 FILLER_146_209
*25738 FILLER_146_2095
*25739 FILLER_146_2103
*25457 FILLER_146_211
*25740 FILLER_146_2111
*25741 FILLER_146_2119
*25742 FILLER_146_2127
*25743 FILLER_146_2129
*25458 FILLER_146_219
*25459 FILLER_146_227
*25460 FILLER_146_235
*25428 FILLER_146_24
*25461 FILLER_146_243
*25462 FILLER_146_251
*25463 FILLER_146_259
*25464 FILLER_146_267
*25465 FILLER_146_269
*25466 FILLER_146_271
*25467 FILLER_146_279
*25429 FILLER_146_28
*25468 FILLER_146_287
*25469 FILLER_146_295
*25470 FILLER_146_303
*25430 FILLER_146_31
*25471 FILLER_146_311
*25472 FILLER_146_319
*25473 FILLER_146_327
*25474 FILLER_146_329
*25475 FILLER_146_331
*25476 FILLER_146_339
*25477 FILLER_146_347
*25478 FILLER_146_355
*25479 FILLER_146_363
*25480 FILLER_146_371
*25481 FILLER_146_379
*25482 FILLER_146_387
*25483 FILLER_146_389
*25431 FILLER_146_39
*25484 FILLER_146_391
*25485 FILLER_146_399
*25486 FILLER_146_407
*25487 FILLER_146_415
*25488 FILLER_146_423
*25489 FILLER_146_431
*25490 FILLER_146_439
*25491 FILLER_146_447
*25492 FILLER_146_449
*25493 FILLER_146_451
*25494 FILLER_146_459
*25495 FILLER_146_467
*25432 FILLER_146_47
*25496 FILLER_146_475
*25497 FILLER_146_483
*25498 FILLER_146_491
*25499 FILLER_146_499
*25500 FILLER_146_507
*25501 FILLER_146_509
*25502 FILLER_146_511
*25503 FILLER_146_519
*25504 FILLER_146_527
*25505 FILLER_146_535
*25506 FILLER_146_543
*25433 FILLER_146_55
*25507 FILLER_146_551
*25508 FILLER_146_559
*25509 FILLER_146_567
*25510 FILLER_146_569
*25511 FILLER_146_571
*25512 FILLER_146_579
*25513 FILLER_146_587
*25514 FILLER_146_595
*25515 FILLER_146_603
*25516 FILLER_146_611
*25517 FILLER_146_621
*25518 FILLER_146_629
*25434 FILLER_146_63
*25519 FILLER_146_631
*25520 FILLER_146_639
*25521 FILLER_146_647
*25522 FILLER_146_655
*25523 FILLER_146_663
*25524 FILLER_146_671
*25525 FILLER_146_679
*25526 FILLER_146_687
*25527 FILLER_146_689
*25528 FILLER_146_691
*25529 FILLER_146_699
*25530 FILLER_146_707
*25435 FILLER_146_71
*25531 FILLER_146_715
*25532 FILLER_146_723
*25533 FILLER_146_731
*25534 FILLER_146_739
*25535 FILLER_146_747
*25536 FILLER_146_749
*25537 FILLER_146_751
*25538 FILLER_146_759
*25539 FILLER_146_767
*25540 FILLER_146_775
*25541 FILLER_146_783
*25436 FILLER_146_79
*25542 FILLER_146_791
*25543 FILLER_146_799
*25426 FILLER_146_8
*25544 FILLER_146_807
*25545 FILLER_146_809
*25546 FILLER_146_811
*25547 FILLER_146_819
*25548 FILLER_146_827
*25549 FILLER_146_835
*25550 FILLER_146_843
*25551 FILLER_146_851
*25552 FILLER_146_859
*25553 FILLER_146_867
*25554 FILLER_146_869
*25437 FILLER_146_87
*25555 FILLER_146_871
*25556 FILLER_146_879
*25557 FILLER_146_887
*25438 FILLER_146_89
*25558 FILLER_146_895
*25559 FILLER_146_903
*25439 FILLER_146_91
*25560 FILLER_146_911
*25561 FILLER_146_919
*25562 FILLER_146_927
*25563 FILLER_146_929
*25564 FILLER_146_931
*25565 FILLER_146_939
*25566 FILLER_146_947
*25567 FILLER_146_955
*25568 FILLER_146_963
*25569 FILLER_146_971
*25570 FILLER_146_979
*25571 FILLER_146_987
*25572 FILLER_146_989
*25440 FILLER_146_99
*25573 FILLER_146_991
*25574 FILLER_146_999
*25744 FILLER_147_0
*25892 FILLER_147_1001
*25893 FILLER_147_1009
*25757 FILLER_147_101
*25894 FILLER_147_1017
*25895 FILLER_147_1019
*25896 FILLER_147_1021
*25897 FILLER_147_1029
*25898 FILLER_147_1037
*25899 FILLER_147_1045
*25900 FILLER_147_1053
*25901 FILLER_147_1061
*25902 FILLER_147_1069
*25903 FILLER_147_1077
*25904 FILLER_147_1079
*25905 FILLER_147_1081
*25906 FILLER_147_1089
*25758 FILLER_147_109
*25907 FILLER_147_1097
*25908 FILLER_147_1105
*25909 FILLER_147_1113
*25910 FILLER_147_1121
*25911 FILLER_147_1129
*25912 FILLER_147_1137
*25913 FILLER_147_1139
*25914 FILLER_147_1141
*25915 FILLER_147_1149
*25916 FILLER_147_1157
*25917 FILLER_147_1165
*25759 FILLER_147_117
*25918 FILLER_147_1173
*25919 FILLER_147_1181
*25920 FILLER_147_1189
*25760 FILLER_147_119
*25921 FILLER_147_1197
*25922 FILLER_147_1199
*25923 FILLER_147_1201
*25924 FILLER_147_1209
*25761 FILLER_147_121
*25925 FILLER_147_1217
*25926 FILLER_147_1225
*25927 FILLER_147_1233
*25928 FILLER_147_1241
*25929 FILLER_147_1249
*25930 FILLER_147_1257
*25931 FILLER_147_1259
*25932 FILLER_147_1261
*25933 FILLER_147_1269
*25934 FILLER_147_1277
*25935 FILLER_147_1285
*25762 FILLER_147_129
*25936 FILLER_147_1293
*25937 FILLER_147_1301
*25938 FILLER_147_1309
*25939 FILLER_147_1317
*25940 FILLER_147_1319
*25941 FILLER_147_1321
*25942 FILLER_147_1329
*25943 FILLER_147_1337
*25944 FILLER_147_1345
*25945 FILLER_147_1353
*25946 FILLER_147_1361
*25947 FILLER_147_1369
*25763 FILLER_147_137
*25948 FILLER_147_1377
*25949 FILLER_147_1379
*25950 FILLER_147_1381
*25951 FILLER_147_1389
*25952 FILLER_147_1397
*25953 FILLER_147_1405
*25954 FILLER_147_1413
*25955 FILLER_147_1421
*25956 FILLER_147_1429
*25957 FILLER_147_1437
*25958 FILLER_147_1439
*25959 FILLER_147_1441
*25960 FILLER_147_1449
*25764 FILLER_147_145
*25961 FILLER_147_1457
*25962 FILLER_147_1465
*25963 FILLER_147_1473
*25964 FILLER_147_1481
*25965 FILLER_147_1489
*25966 FILLER_147_1497
*25967 FILLER_147_1499
*25968 FILLER_147_1501
*25969 FILLER_147_1509
*25970 FILLER_147_1517
*25971 FILLER_147_1525
*25765 FILLER_147_153
*25972 FILLER_147_1533
*25973 FILLER_147_1541
*25974 FILLER_147_1549
*25975 FILLER_147_1557
*25976 FILLER_147_1559
*25977 FILLER_147_1561
*25978 FILLER_147_1569
*25979 FILLER_147_1577
*25980 FILLER_147_1585
*25981 FILLER_147_1593
*25746 FILLER_147_16
*25982 FILLER_147_1601
*25983 FILLER_147_1609
*25766 FILLER_147_161
*25984 FILLER_147_1617
*25985 FILLER_147_1619
*25986 FILLER_147_1621
*25987 FILLER_147_1629
*25988 FILLER_147_1637
*25989 FILLER_147_1645
*25990 FILLER_147_1653
*25991 FILLER_147_1661
*25992 FILLER_147_1669
*25993 FILLER_147_1677
*25994 FILLER_147_1679
*25995 FILLER_147_1681
*25996 FILLER_147_1689
*25767 FILLER_147_169
*25997 FILLER_147_1697
*25998 FILLER_147_1705
*25999 FILLER_147_1713
*26000 FILLER_147_1721
*26001 FILLER_147_1729
*26002 FILLER_147_1737
*26003 FILLER_147_1739
*26004 FILLER_147_1741
*26005 FILLER_147_1749
*26006 FILLER_147_1757
*26007 FILLER_147_1765
*25768 FILLER_147_177
*26008 FILLER_147_1773
*26009 FILLER_147_1781
*26010 FILLER_147_1789
*25769 FILLER_147_179
*26011 FILLER_147_1797
*26012 FILLER_147_1799
*26013 FILLER_147_1801
*26014 FILLER_147_1809
*25770 FILLER_147_181
*26015 FILLER_147_1817
*26016 FILLER_147_1825
*26017 FILLER_147_1833
*26018 FILLER_147_1841
*26019 FILLER_147_1849
*26020 FILLER_147_1857
*26021 FILLER_147_1859
*26022 FILLER_147_1861
*26023 FILLER_147_1869
*26024 FILLER_147_1877
*26025 FILLER_147_1885
*25771 FILLER_147_189
*26026 FILLER_147_1893
*26027 FILLER_147_1901
*26028 FILLER_147_1909
*26029 FILLER_147_1917
*26030 FILLER_147_1919
*26031 FILLER_147_1921
*26032 FILLER_147_1929
*26033 FILLER_147_1937
*26034 FILLER_147_1945
*26035 FILLER_147_1953
*26036 FILLER_147_1961
*26037 FILLER_147_1969
*25772 FILLER_147_197
*26038 FILLER_147_1977
*26039 FILLER_147_1979
*26040 FILLER_147_1981
*26041 FILLER_147_1989
*26042 FILLER_147_1997
*26043 FILLER_147_2005
*26044 FILLER_147_2013
*26045 FILLER_147_2021
*26046 FILLER_147_2029
*26047 FILLER_147_2037
*26048 FILLER_147_2039
*26049 FILLER_147_2041
*26050 FILLER_147_2049
*25773 FILLER_147_205
*26051 FILLER_147_2057
*26052 FILLER_147_2065
*26053 FILLER_147_2073
*26054 FILLER_147_2081
*26055 FILLER_147_2089
*26056 FILLER_147_2097
*26057 FILLER_147_2099
*26058 FILLER_147_2101
*26059 FILLER_147_2109
*26060 FILLER_147_2117
*26061 FILLER_147_2125
*26062 FILLER_147_2129
*25774 FILLER_147_213
*25775 FILLER_147_221
*25776 FILLER_147_229
*25777 FILLER_147_237
*25778 FILLER_147_239
*25747 FILLER_147_24
*25779 FILLER_147_241
*25780 FILLER_147_249
*25781 FILLER_147_257
*25782 FILLER_147_265
*25783 FILLER_147_273
*25784 FILLER_147_281
*25785 FILLER_147_289
*25786 FILLER_147_297
*25787 FILLER_147_299
*25788 FILLER_147_301
*25789 FILLER_147_309
*25790 FILLER_147_317
*25748 FILLER_147_32
*25791 FILLER_147_325
*25792 FILLER_147_333
*25793 FILLER_147_341
*25794 FILLER_147_349
*25795 FILLER_147_357
*25796 FILLER_147_359
*25797 FILLER_147_361
*25798 FILLER_147_369
*25799 FILLER_147_377
*25800 FILLER_147_385
*25801 FILLER_147_393
*25749 FILLER_147_40
*25802 FILLER_147_401
*25803 FILLER_147_409
*25804 FILLER_147_417
*25805 FILLER_147_419
*25806 FILLER_147_421
*25807 FILLER_147_429
*25808 FILLER_147_437
*25809 FILLER_147_445
*25810 FILLER_147_453
*25811 FILLER_147_461
*25812 FILLER_147_469
*25813 FILLER_147_477
*25814 FILLER_147_479
*25750 FILLER_147_48
*25815 FILLER_147_481
*25816 FILLER_147_489
*25817 FILLER_147_497
*25818 FILLER_147_505
*25819 FILLER_147_513
*25820 FILLER_147_521
*25821 FILLER_147_529
*25822 FILLER_147_537
*25823 FILLER_147_539
*25824 FILLER_147_541
*25825 FILLER_147_549
*25826 FILLER_147_557
*25751 FILLER_147_56
*25827 FILLER_147_565
*25828 FILLER_147_573
*25829 FILLER_147_581
*25830 FILLER_147_589
*25831 FILLER_147_597
*25832 FILLER_147_599
*25833 FILLER_147_601
*25834 FILLER_147_609
*25752 FILLER_147_61
*25835 FILLER_147_617
*25836 FILLER_147_625
*25837 FILLER_147_633
*25838 FILLER_147_641
*25839 FILLER_147_649
*25840 FILLER_147_657
*25841 FILLER_147_659
*25842 FILLER_147_661
*25843 FILLER_147_669
*25844 FILLER_147_677
*25845 FILLER_147_685
*25753 FILLER_147_69
*25846 FILLER_147_693
*25847 FILLER_147_701
*25848 FILLER_147_709
*25849 FILLER_147_717
*25850 FILLER_147_719
*25851 FILLER_147_721
*25852 FILLER_147_729
*25853 FILLER_147_737
*25854 FILLER_147_745
*25855 FILLER_147_753
*25856 FILLER_147_761
*25857 FILLER_147_769
*25754 FILLER_147_77
*25858 FILLER_147_777
*25859 FILLER_147_779
*25860 FILLER_147_781
*25861 FILLER_147_789
*25862 FILLER_147_797
*25745 FILLER_147_8
*25863 FILLER_147_805
*25864 FILLER_147_813
*25865 FILLER_147_821
*25866 FILLER_147_829
*25867 FILLER_147_837
*25868 FILLER_147_839
*25869 FILLER_147_841
*25870 FILLER_147_849
*25755 FILLER_147_85
*25871 FILLER_147_857
*25872 FILLER_147_865
*25873 FILLER_147_873
*25874 FILLER_147_881
*25875 FILLER_147_889
*25876 FILLER_147_897
*25877 FILLER_147_899
*25878 FILLER_147_901
*25879 FILLER_147_909
*25880 FILLER_147_917
*25881 FILLER_147_925
*25756 FILLER_147_93
*25882 FILLER_147_933
*25883 FILLER_147_941
*25884 FILLER_147_949
*25885 FILLER_147_957
*25886 FILLER_147_959
*25887 FILLER_147_961
*25888 FILLER_147_969
*25889 FILLER_147_977
*25890 FILLER_147_985
*25891 FILLER_147_993
*26063 FILLER_148_0
*26214 FILLER_148_1007
*26215 FILLER_148_1015
*26216 FILLER_148_1023
*26217 FILLER_148_1031
*26218 FILLER_148_1039
*26219 FILLER_148_1047
*26220 FILLER_148_1049
*26221 FILLER_148_1051
*26222 FILLER_148_1059
*26223 FILLER_148_1067
*26079 FILLER_148_107
*26224 FILLER_148_1075
*26225 FILLER_148_1083
*26226 FILLER_148_1091
*26227 FILLER_148_1099
*26228 FILLER_148_1107
*26229 FILLER_148_1109
*26230 FILLER_148_1111
*26231 FILLER_148_1119
*26232 FILLER_148_1127
*26233 FILLER_148_1135
*26234 FILLER_148_1143
*26080 FILLER_148_115
*26235 FILLER_148_1151
*26236 FILLER_148_1159
*26237 FILLER_148_1167
*26238 FILLER_148_1169
*26239 FILLER_148_1171
*26240 FILLER_148_1179
*26241 FILLER_148_1187
*26242 FILLER_148_1195
*26243 FILLER_148_1203
*26244 FILLER_148_1211
*26245 FILLER_148_1219
*26246 FILLER_148_1227
*26247 FILLER_148_1229
*26081 FILLER_148_123
*26248 FILLER_148_1231
*26249 FILLER_148_1239
*26250 FILLER_148_1247
*26251 FILLER_148_1255
*26252 FILLER_148_1263
*26253 FILLER_148_1271
*26254 FILLER_148_1279
*26255 FILLER_148_1287
*26256 FILLER_148_1289
*26257 FILLER_148_1291
*26258 FILLER_148_1299
*26259 FILLER_148_1307
*26082 FILLER_148_131
*26260 FILLER_148_1315
*26261 FILLER_148_1323
*26262 FILLER_148_1331
*26263 FILLER_148_1339
*26264 FILLER_148_1347
*26265 FILLER_148_1349
*26266 FILLER_148_1351
*26267 FILLER_148_1359
*26268 FILLER_148_1367
*26269 FILLER_148_1375
*26270 FILLER_148_1383
*26083 FILLER_148_139
*26271 FILLER_148_1391
*26272 FILLER_148_1399
*26273 FILLER_148_1407
*26274 FILLER_148_1409
*26275 FILLER_148_1411
*26276 FILLER_148_1419
*26277 FILLER_148_1427
*26278 FILLER_148_1435
*26279 FILLER_148_1443
*26280 FILLER_148_1451
*26281 FILLER_148_1459
*26282 FILLER_148_1467
*26283 FILLER_148_1469
*26084 FILLER_148_147
*26284 FILLER_148_1471
*26285 FILLER_148_1479
*26286 FILLER_148_1487
*26085 FILLER_148_149
*26287 FILLER_148_1495
*26288 FILLER_148_1503
*26086 FILLER_148_151
*26289 FILLER_148_1511
*26290 FILLER_148_1519
*26291 FILLER_148_1527
*26292 FILLER_148_1529
*26293 FILLER_148_1531
*26294 FILLER_148_1539
*26295 FILLER_148_1547
*26296 FILLER_148_1555
*26297 FILLER_148_1563
*26298 FILLER_148_1571
*26299 FILLER_148_1579
*26300 FILLER_148_1587
*26301 FILLER_148_1589
*26087 FILLER_148_159
*26302 FILLER_148_1591
*26303 FILLER_148_1599
*26065 FILLER_148_16
*26304 FILLER_148_1607
*26305 FILLER_148_1615
*26306 FILLER_148_1623
*26307 FILLER_148_1631
*26308 FILLER_148_1639
*26309 FILLER_148_1647
*26310 FILLER_148_1649
*26311 FILLER_148_1651
*26312 FILLER_148_1659
*26313 FILLER_148_1667
*26088 FILLER_148_167
*26314 FILLER_148_1675
*26315 FILLER_148_1683
*26316 FILLER_148_1691
*26317 FILLER_148_1699
*26318 FILLER_148_1707
*26319 FILLER_148_1709
*26320 FILLER_148_1711
*26321 FILLER_148_1719
*26322 FILLER_148_1727
*26323 FILLER_148_1735
*26324 FILLER_148_1743
*26089 FILLER_148_175
*26325 FILLER_148_1751
*26326 FILLER_148_1759
*26327 FILLER_148_1767
*26328 FILLER_148_1769
*26329 FILLER_148_1771
*26330 FILLER_148_1779
*26331 FILLER_148_1787
*26332 FILLER_148_1795
*26333 FILLER_148_1803
*26334 FILLER_148_1811
*26335 FILLER_148_1819
*26336 FILLER_148_1827
*26337 FILLER_148_1829
*26090 FILLER_148_183
*26338 FILLER_148_1831
*26339 FILLER_148_1839
*26340 FILLER_148_1847
*26341 FILLER_148_1855
*26342 FILLER_148_1863
*26343 FILLER_148_1871
*26344 FILLER_148_1879
*26345 FILLER_148_1887
*26346 FILLER_148_1889
*26347 FILLER_148_1891
*26348 FILLER_148_1899
*26349 FILLER_148_1907
*26091 FILLER_148_191
*26350 FILLER_148_1915
*26351 FILLER_148_1923
*26352 FILLER_148_1931
*26353 FILLER_148_1939
*26354 FILLER_148_1947
*26355 FILLER_148_1949
*26356 FILLER_148_1951
*26357 FILLER_148_1959
*26358 FILLER_148_1967
*26359 FILLER_148_1975
*26360 FILLER_148_1983
*26092 FILLER_148_199
*26361 FILLER_148_1991
*26362 FILLER_148_1999
*26363 FILLER_148_2007
*26364 FILLER_148_2009
*26365 FILLER_148_2011
*26366 FILLER_148_2019
*26367 FILLER_148_2027
*26368 FILLER_148_2035
*26369 FILLER_148_2043
*26370 FILLER_148_2051
*26371 FILLER_148_2059
*26372 FILLER_148_2067
*26373 FILLER_148_2069
*26093 FILLER_148_207
*26374 FILLER_148_2071
*26375 FILLER_148_2079
*26376 FILLER_148_2087
*26094 FILLER_148_209
*26377 FILLER_148_2095
*26378 FILLER_148_2103
*26095 FILLER_148_211
*26379 FILLER_148_2111
*26380 FILLER_148_2119
*26381 FILLER_148_2127
*26382 FILLER_148_2129
*26096 FILLER_148_219
*26097 FILLER_148_227
*26098 FILLER_148_235
*26066 FILLER_148_24
*26099 FILLER_148_243
*26100 FILLER_148_251
*26101 FILLER_148_259
*26102 FILLER_148_267
*26103 FILLER_148_269
*26104 FILLER_148_271
*26105 FILLER_148_279
*26067 FILLER_148_28
*26106 FILLER_148_287
*26107 FILLER_148_295
*26108 FILLER_148_303
*26068 FILLER_148_31
*26109 FILLER_148_311
*26110 FILLER_148_319
*26111 FILLER_148_327
*26112 FILLER_148_329
*26113 FILLER_148_331
*26114 FILLER_148_339
*26115 FILLER_148_347
*26116 FILLER_148_355
*26117 FILLER_148_363
*26118 FILLER_148_371
*26119 FILLER_148_379
*26120 FILLER_148_387
*26121 FILLER_148_389
*26069 FILLER_148_39
*26122 FILLER_148_391
*26123 FILLER_148_399
*26124 FILLER_148_407
*26125 FILLER_148_415
*26126 FILLER_148_423
*26127 FILLER_148_431
*26128 FILLER_148_439
*26129 FILLER_148_447
*26130 FILLER_148_449
*26131 FILLER_148_451
*26132 FILLER_148_459
*26133 FILLER_148_467
*26070 FILLER_148_47
*26134 FILLER_148_475
*26135 FILLER_148_483
*26136 FILLER_148_491
*26137 FILLER_148_499
*26138 FILLER_148_507
*26139 FILLER_148_509
*26140 FILLER_148_511
*26141 FILLER_148_519
*26142 FILLER_148_527
*26143 FILLER_148_535
*26144 FILLER_148_543
*26071 FILLER_148_55
*26145 FILLER_148_551
*26146 FILLER_148_559
*26147 FILLER_148_567
*26148 FILLER_148_569
*26149 FILLER_148_571
*26150 FILLER_148_579
*26151 FILLER_148_587
*26152 FILLER_148_595
*26153 FILLER_148_603
*26154 FILLER_148_611
*26155 FILLER_148_619
*26156 FILLER_148_627
*26157 FILLER_148_629
*26072 FILLER_148_63
*26158 FILLER_148_631
*26159 FILLER_148_639
*26160 FILLER_148_647
*26161 FILLER_148_655
*26162 FILLER_148_663
*26163 FILLER_148_671
*26164 FILLER_148_679
*26165 FILLER_148_687
*26166 FILLER_148_689
*26167 FILLER_148_691
*26168 FILLER_148_699
*26169 FILLER_148_707
*26073 FILLER_148_71
*26170 FILLER_148_715
*26171 FILLER_148_723
*26172 FILLER_148_731
*26173 FILLER_148_739
*26174 FILLER_148_747
*26175 FILLER_148_749
*26176 FILLER_148_751
*26177 FILLER_148_759
*26178 FILLER_148_767
*26179 FILLER_148_775
*26180 FILLER_148_783
*26074 FILLER_148_79
*26181 FILLER_148_791
*26182 FILLER_148_799
*26064 FILLER_148_8
*26183 FILLER_148_807
*26184 FILLER_148_809
*26185 FILLER_148_811
*26186 FILLER_148_819
*26187 FILLER_148_827
*26188 FILLER_148_835
*26189 FILLER_148_843
*26190 FILLER_148_851
*26191 FILLER_148_859
*26192 FILLER_148_867
*26193 FILLER_148_869
*26075 FILLER_148_87
*26194 FILLER_148_871
*26195 FILLER_148_879
*26196 FILLER_148_887
*26076 FILLER_148_89
*26197 FILLER_148_895
*26198 FILLER_148_903
*26077 FILLER_148_91
*26199 FILLER_148_911
*26200 FILLER_148_919
*26201 FILLER_148_927
*26202 FILLER_148_929
*26203 FILLER_148_931
*26204 FILLER_148_939
*26205 FILLER_148_947
*26206 FILLER_148_955
*26207 FILLER_148_963
*26208 FILLER_148_971
*26209 FILLER_148_979
*26210 FILLER_148_987
*26211 FILLER_148_989
*26078 FILLER_148_99
*26212 FILLER_148_991
*26213 FILLER_148_999
*26383 FILLER_149_0
*26531 FILLER_149_1001
*26532 FILLER_149_1009
*26396 FILLER_149_101
*26533 FILLER_149_1017
*26534 FILLER_149_1019
*26535 FILLER_149_1021
*26536 FILLER_149_1029
*26537 FILLER_149_1037
*26538 FILLER_149_1045
*26539 FILLER_149_1053
*26540 FILLER_149_1061
*26541 FILLER_149_1069
*26542 FILLER_149_1077
*26543 FILLER_149_1079
*26544 FILLER_149_1081
*26545 FILLER_149_1089
*26397 FILLER_149_109
*26546 FILLER_149_1097
*26547 FILLER_149_1105
*26548 FILLER_149_1113
*26549 FILLER_149_1121
*26550 FILLER_149_1129
*26551 FILLER_149_1137
*26552 FILLER_149_1139
*26553 FILLER_149_1141
*26554 FILLER_149_1149
*26555 FILLER_149_1157
*26556 FILLER_149_1165
*26398 FILLER_149_117
*26557 FILLER_149_1173
*26558 FILLER_149_1181
*26559 FILLER_149_1189
*26399 FILLER_149_119
*26560 FILLER_149_1197
*26561 FILLER_149_1199
*26562 FILLER_149_1201
*26563 FILLER_149_1209
*26400 FILLER_149_121
*26564 FILLER_149_1217
*26565 FILLER_149_1225
*26566 FILLER_149_1233
*26567 FILLER_149_1241
*26568 FILLER_149_1249
*26569 FILLER_149_1257
*26570 FILLER_149_1259
*26571 FILLER_149_1261
*26572 FILLER_149_1269
*26573 FILLER_149_1277
*26574 FILLER_149_1285
*26401 FILLER_149_129
*26575 FILLER_149_1293
*26576 FILLER_149_1301
*26577 FILLER_149_1309
*26578 FILLER_149_1317
*26579 FILLER_149_1319
*26580 FILLER_149_1321
*26581 FILLER_149_1329
*26582 FILLER_149_1337
*26583 FILLER_149_1345
*26584 FILLER_149_1353
*26585 FILLER_149_1361
*26586 FILLER_149_1369
*26402 FILLER_149_137
*26587 FILLER_149_1377
*26588 FILLER_149_1379
*26589 FILLER_149_1381
*26590 FILLER_149_1389
*26591 FILLER_149_1397
*26592 FILLER_149_1405
*26593 FILLER_149_1413
*26594 FILLER_149_1421
*26595 FILLER_149_1429
*26596 FILLER_149_1437
*26597 FILLER_149_1439
*26598 FILLER_149_1441
*26599 FILLER_149_1449
*26403 FILLER_149_145
*26600 FILLER_149_1457
*26601 FILLER_149_1465
*26602 FILLER_149_1473
*26603 FILLER_149_1481
*26604 FILLER_149_1489
*26605 FILLER_149_1497
*26606 FILLER_149_1499
*26607 FILLER_149_1501
*26608 FILLER_149_1509
*26609 FILLER_149_1517
*26610 FILLER_149_1525
*26404 FILLER_149_153
*26611 FILLER_149_1533
*26612 FILLER_149_1541
*26613 FILLER_149_1549
*26614 FILLER_149_1557
*26615 FILLER_149_1559
*26616 FILLER_149_1561
*26617 FILLER_149_1569
*26618 FILLER_149_1577
*26619 FILLER_149_1585
*26620 FILLER_149_1593
*26385 FILLER_149_16
*26621 FILLER_149_1601
*26622 FILLER_149_1609
*26405 FILLER_149_161
*26623 FILLER_149_1617
*26624 FILLER_149_1619
*26625 FILLER_149_1621
*26626 FILLER_149_1629
*26627 FILLER_149_1637
*26628 FILLER_149_1645
*26629 FILLER_149_1653
*26630 FILLER_149_1661
*26631 FILLER_149_1669
*26632 FILLER_149_1677
*26633 FILLER_149_1679
*26634 FILLER_149_1681
*26635 FILLER_149_1689
*26406 FILLER_149_169
*26636 FILLER_149_1697
*26637 FILLER_149_1705
*26638 FILLER_149_1713
*26639 FILLER_149_1721
*26640 FILLER_149_1729
*26641 FILLER_149_1737
*26642 FILLER_149_1739
*26643 FILLER_149_1741
*26644 FILLER_149_1749
*26645 FILLER_149_1757
*26646 FILLER_149_1765
*26407 FILLER_149_177
*26647 FILLER_149_1773
*26648 FILLER_149_1781
*26649 FILLER_149_1789
*26408 FILLER_149_179
*26650 FILLER_149_1797
*26651 FILLER_149_1799
*26652 FILLER_149_1801
*26653 FILLER_149_1809
*26409 FILLER_149_181
*26654 FILLER_149_1817
*26655 FILLER_149_1825
*26656 FILLER_149_1833
*26657 FILLER_149_1841
*26658 FILLER_149_1849
*26659 FILLER_149_1857
*26660 FILLER_149_1859
*26661 FILLER_149_1861
*26662 FILLER_149_1869
*26663 FILLER_149_1877
*26664 FILLER_149_1885
*26410 FILLER_149_189
*26665 FILLER_149_1893
*26666 FILLER_149_1901
*26667 FILLER_149_1909
*26668 FILLER_149_1917
*26669 FILLER_149_1919
*26670 FILLER_149_1921
*26671 FILLER_149_1929
*26672 FILLER_149_1937
*26673 FILLER_149_1945
*26674 FILLER_149_1953
*26675 FILLER_149_1961
*26676 FILLER_149_1969
*26411 FILLER_149_197
*26677 FILLER_149_1977
*26678 FILLER_149_1979
*26679 FILLER_149_1981
*26680 FILLER_149_1989
*26681 FILLER_149_1997
*26682 FILLER_149_2005
*26683 FILLER_149_2013
*26684 FILLER_149_2021
*26685 FILLER_149_2029
*26686 FILLER_149_2037
*26687 FILLER_149_2039
*26688 FILLER_149_2041
*26689 FILLER_149_2049
*26412 FILLER_149_205
*26690 FILLER_149_2057
*26691 FILLER_149_2065
*26692 FILLER_149_2073
*26693 FILLER_149_2081
*26694 FILLER_149_2089
*26695 FILLER_149_2097
*26696 FILLER_149_2099
*26697 FILLER_149_2101
*26698 FILLER_149_2109
*26699 FILLER_149_2117
*26700 FILLER_149_2125
*26701 FILLER_149_2129
*26413 FILLER_149_213
*26414 FILLER_149_221
*26415 FILLER_149_229
*26416 FILLER_149_237
*26417 FILLER_149_239
*26386 FILLER_149_24
*26418 FILLER_149_241
*26419 FILLER_149_249
*26420 FILLER_149_257
*26421 FILLER_149_265
*26422 FILLER_149_273
*26423 FILLER_149_281
*26424 FILLER_149_289
*26425 FILLER_149_297
*26426 FILLER_149_299
*26427 FILLER_149_301
*26428 FILLER_149_309
*26429 FILLER_149_317
*26387 FILLER_149_32
*26430 FILLER_149_325
*26431 FILLER_149_333
*26432 FILLER_149_341
*26433 FILLER_149_349
*26434 FILLER_149_357
*26435 FILLER_149_359
*26436 FILLER_149_361
*26437 FILLER_149_369
*26438 FILLER_149_377
*26439 FILLER_149_385
*26440 FILLER_149_393
*26388 FILLER_149_40
*26441 FILLER_149_401
*26442 FILLER_149_409
*26443 FILLER_149_417
*26444 FILLER_149_419
*26445 FILLER_149_421
*26446 FILLER_149_429
*26447 FILLER_149_437
*26448 FILLER_149_445
*26449 FILLER_149_453
*26450 FILLER_149_461
*26451 FILLER_149_469
*26452 FILLER_149_477
*26453 FILLER_149_479
*26389 FILLER_149_48
*26454 FILLER_149_481
*26455 FILLER_149_489
*26456 FILLER_149_497
*26457 FILLER_149_505
*26458 FILLER_149_513
*26459 FILLER_149_521
*26460 FILLER_149_529
*26461 FILLER_149_537
*26462 FILLER_149_539
*26463 FILLER_149_541
*26464 FILLER_149_549
*26465 FILLER_149_557
*26390 FILLER_149_56
*26466 FILLER_149_565
*26467 FILLER_149_573
*26468 FILLER_149_581
*26469 FILLER_149_589
*26470 FILLER_149_597
*26471 FILLER_149_599
*26472 FILLER_149_601
*26473 FILLER_149_609
*26391 FILLER_149_61
*26474 FILLER_149_617
*26475 FILLER_149_625
*26476 FILLER_149_633
*26477 FILLER_149_641
*26478 FILLER_149_649
*26479 FILLER_149_657
*26480 FILLER_149_659
*26481 FILLER_149_661
*26482 FILLER_149_669
*26483 FILLER_149_677
*26484 FILLER_149_685
*26392 FILLER_149_69
*26485 FILLER_149_693
*26486 FILLER_149_701
*26487 FILLER_149_709
*26488 FILLER_149_717
*26489 FILLER_149_719
*26490 FILLER_149_721
*26491 FILLER_149_729
*26492 FILLER_149_737
*26493 FILLER_149_745
*26494 FILLER_149_753
*26495 FILLER_149_761
*26496 FILLER_149_769
*26393 FILLER_149_77
*26497 FILLER_149_777
*26498 FILLER_149_779
*26499 FILLER_149_781
*26500 FILLER_149_789
*26501 FILLER_149_797
*26384 FILLER_149_8
*26502 FILLER_149_805
*26503 FILLER_149_813
*26504 FILLER_149_821
*26505 FILLER_149_829
*26506 FILLER_149_837
*26507 FILLER_149_839
*26508 FILLER_149_841
*26509 FILLER_149_849
*26394 FILLER_149_85
*26510 FILLER_149_857
*26511 FILLER_149_865
*26512 FILLER_149_873
*26513 FILLER_149_881
*26514 FILLER_149_889
*26515 FILLER_149_897
*26516 FILLER_149_899
*26517 FILLER_149_901
*26518 FILLER_149_909
*26519 FILLER_149_917
*26520 FILLER_149_925
*26395 FILLER_149_93
*26521 FILLER_149_933
*26522 FILLER_149_941
*26523 FILLER_149_949
*26524 FILLER_149_957
*26525 FILLER_149_959
*26526 FILLER_149_961
*26527 FILLER_149_969
*26528 FILLER_149_977
*26529 FILLER_149_985
*26530 FILLER_149_993
*6361 FILLER_14_0
*6367 FILLER_14_1549
*6368 FILLER_14_1557
*6369 FILLER_14_1565
*6370 FILLER_14_1573
*6371 FILLER_14_1577
*6372 FILLER_14_1580
*6373 FILLER_14_1588
*6374 FILLER_14_1596
*6363 FILLER_14_16
*6375 FILLER_14_1604
*6376 FILLER_14_1612
*6377 FILLER_14_1620
*6378 FILLER_14_1628
*6379 FILLER_14_1636
*6380 FILLER_14_1638
*6381 FILLER_14_1640
*6382 FILLER_14_1648
*6383 FILLER_14_1656
*6384 FILLER_14_1664
*6385 FILLER_14_1672
*6386 FILLER_14_1680
*6387 FILLER_14_1688
*6388 FILLER_14_1696
*6389 FILLER_14_1698
*6390 FILLER_14_1700
*6391 FILLER_14_1708
*6392 FILLER_14_1716
*6393 FILLER_14_1724
*6394 FILLER_14_1732
*6395 FILLER_14_1740
*6396 FILLER_14_1748
*6397 FILLER_14_1756
*6398 FILLER_14_1758
*6399 FILLER_14_1760
*6400 FILLER_14_1768
*6401 FILLER_14_1776
*6402 FILLER_14_1784
*6403 FILLER_14_1792
*6404 FILLER_14_1800
*6405 FILLER_14_1808
*6406 FILLER_14_1816
*6407 FILLER_14_1818
*6408 FILLER_14_1820
*6409 FILLER_14_1828
*6410 FILLER_14_1836
*6411 FILLER_14_1844
*6412 FILLER_14_1852
*6413 FILLER_14_1860
*6414 FILLER_14_1868
*6415 FILLER_14_1876
*6416 FILLER_14_1878
*6417 FILLER_14_1880
*6418 FILLER_14_1888
*6419 FILLER_14_1896
*6420 FILLER_14_1904
*6421 FILLER_14_1912
*6422 FILLER_14_1920
*6423 FILLER_14_1928
*6424 FILLER_14_1936
*6425 FILLER_14_1938
*6426 FILLER_14_1940
*6427 FILLER_14_1948
*6428 FILLER_14_1956
*6429 FILLER_14_1964
*6430 FILLER_14_1972
*6431 FILLER_14_1980
*6432 FILLER_14_1988
*6433 FILLER_14_1996
*6434 FILLER_14_1998
*6435 FILLER_14_2000
*6436 FILLER_14_2008
*6437 FILLER_14_2016
*6438 FILLER_14_2024
*6439 FILLER_14_2032
*6440 FILLER_14_2040
*6441 FILLER_14_2048
*6442 FILLER_14_2056
*6443 FILLER_14_2058
*6444 FILLER_14_2060
*6445 FILLER_14_2068
*6446 FILLER_14_2076
*6447 FILLER_14_2084
*6448 FILLER_14_2092
*6449 FILLER_14_2100
*6450 FILLER_14_2108
*6451 FILLER_14_2116
*6452 FILLER_14_2118
*6453 FILLER_14_2120
*6454 FILLER_14_2128
*6364 FILLER_14_24
*6365 FILLER_14_28
*6366 FILLER_14_31
*6362 FILLER_14_8
*26702 FILLER_150_0
*26853 FILLER_150_1007
*26854 FILLER_150_1015
*26855 FILLER_150_1023
*26856 FILLER_150_1031
*26857 FILLER_150_1039
*26858 FILLER_150_1047
*26859 FILLER_150_1049
*26860 FILLER_150_1051
*26861 FILLER_150_1059
*26862 FILLER_150_1067
*26718 FILLER_150_107
*26863 FILLER_150_1075
*26864 FILLER_150_1083
*26865 FILLER_150_1091
*26866 FILLER_150_1099
*26867 FILLER_150_1107
*26868 FILLER_150_1109
*26869 FILLER_150_1111
*26870 FILLER_150_1119
*26871 FILLER_150_1127
*26872 FILLER_150_1135
*26873 FILLER_150_1143
*26719 FILLER_150_115
*26874 FILLER_150_1151
*26875 FILLER_150_1159
*26876 FILLER_150_1167
*26877 FILLER_150_1169
*26878 FILLER_150_1171
*26879 FILLER_150_1179
*26880 FILLER_150_1187
*26881 FILLER_150_1195
*26882 FILLER_150_1203
*26883 FILLER_150_1211
*26884 FILLER_150_1219
*26885 FILLER_150_1227
*26886 FILLER_150_1229
*26720 FILLER_150_123
*26887 FILLER_150_1231
*26888 FILLER_150_1239
*26889 FILLER_150_1247
*26890 FILLER_150_1255
*26891 FILLER_150_1263
*26892 FILLER_150_1271
*26893 FILLER_150_1279
*26894 FILLER_150_1287
*26895 FILLER_150_1289
*26896 FILLER_150_1291
*26897 FILLER_150_1299
*26898 FILLER_150_1307
*26721 FILLER_150_131
*26899 FILLER_150_1315
*26900 FILLER_150_1323
*26901 FILLER_150_1331
*26902 FILLER_150_1339
*26903 FILLER_150_1347
*26904 FILLER_150_1349
*26905 FILLER_150_1351
*26906 FILLER_150_1359
*26907 FILLER_150_1367
*26908 FILLER_150_1375
*26909 FILLER_150_1383
*26722 FILLER_150_139
*26910 FILLER_150_1391
*26911 FILLER_150_1399
*26912 FILLER_150_1407
*26913 FILLER_150_1409
*26914 FILLER_150_1411
*26915 FILLER_150_1419
*26916 FILLER_150_1427
*26917 FILLER_150_1435
*26918 FILLER_150_1443
*26919 FILLER_150_1451
*26920 FILLER_150_1459
*26921 FILLER_150_1467
*26922 FILLER_150_1469
*26723 FILLER_150_147
*26923 FILLER_150_1471
*26924 FILLER_150_1479
*26925 FILLER_150_1487
*26724 FILLER_150_149
*26926 FILLER_150_1495
*26927 FILLER_150_1503
*26725 FILLER_150_151
*26928 FILLER_150_1511
*26929 FILLER_150_1519
*26930 FILLER_150_1527
*26931 FILLER_150_1529
*26932 FILLER_150_1531
*26933 FILLER_150_1539
*26934 FILLER_150_1547
*26935 FILLER_150_1555
*26936 FILLER_150_1563
*26937 FILLER_150_1571
*26938 FILLER_150_1579
*26939 FILLER_150_1587
*26940 FILLER_150_1589
*26726 FILLER_150_159
*26941 FILLER_150_1591
*26942 FILLER_150_1599
*26704 FILLER_150_16
*26943 FILLER_150_1607
*26944 FILLER_150_1615
*26945 FILLER_150_1623
*26946 FILLER_150_1631
*26947 FILLER_150_1639
*26948 FILLER_150_1647
*26949 FILLER_150_1649
*26950 FILLER_150_1651
*26951 FILLER_150_1659
*26952 FILLER_150_1667
*26727 FILLER_150_167
*26953 FILLER_150_1675
*26954 FILLER_150_1683
*26955 FILLER_150_1691
*26956 FILLER_150_1699
*26957 FILLER_150_1707
*26958 FILLER_150_1709
*26959 FILLER_150_1711
*26960 FILLER_150_1719
*26961 FILLER_150_1727
*26962 FILLER_150_1735
*26963 FILLER_150_1743
*26728 FILLER_150_175
*26964 FILLER_150_1751
*26965 FILLER_150_1759
*26966 FILLER_150_1767
*26967 FILLER_150_1769
*26968 FILLER_150_1771
*26969 FILLER_150_1779
*26970 FILLER_150_1787
*26971 FILLER_150_1795
*26972 FILLER_150_1803
*26973 FILLER_150_1811
*26974 FILLER_150_1819
*26975 FILLER_150_1827
*26976 FILLER_150_1829
*26729 FILLER_150_183
*26977 FILLER_150_1831
*26978 FILLER_150_1839
*26979 FILLER_150_1847
*26980 FILLER_150_1855
*26981 FILLER_150_1863
*26982 FILLER_150_1871
*26983 FILLER_150_1879
*26984 FILLER_150_1887
*26985 FILLER_150_1889
*26986 FILLER_150_1891
*26987 FILLER_150_1899
*26988 FILLER_150_1907
*26730 FILLER_150_191
*26989 FILLER_150_1915
*26990 FILLER_150_1923
*26991 FILLER_150_1931
*26992 FILLER_150_1939
*26993 FILLER_150_1947
*26994 FILLER_150_1949
*26995 FILLER_150_1951
*26996 FILLER_150_1959
*26997 FILLER_150_1967
*26998 FILLER_150_1975
*26999 FILLER_150_1983
*26731 FILLER_150_199
*27000 FILLER_150_1991
*27001 FILLER_150_1999
*27002 FILLER_150_2007
*27003 FILLER_150_2009
*27004 FILLER_150_2011
*27005 FILLER_150_2019
*27006 FILLER_150_2027
*27007 FILLER_150_2035
*27008 FILLER_150_2043
*27009 FILLER_150_2051
*27010 FILLER_150_2059
*27011 FILLER_150_2067
*27012 FILLER_150_2069
*26732 FILLER_150_207
*27013 FILLER_150_2071
*27014 FILLER_150_2079
*27015 FILLER_150_2087
*26733 FILLER_150_209
*27016 FILLER_150_2095
*27017 FILLER_150_2103
*26734 FILLER_150_211
*27018 FILLER_150_2111
*27019 FILLER_150_2119
*27020 FILLER_150_2127
*27021 FILLER_150_2129
*26735 FILLER_150_219
*26736 FILLER_150_227
*26737 FILLER_150_235
*26705 FILLER_150_24
*26738 FILLER_150_243
*26739 FILLER_150_251
*26740 FILLER_150_259
*26741 FILLER_150_267
*26742 FILLER_150_269
*26743 FILLER_150_271
*26744 FILLER_150_279
*26706 FILLER_150_28
*26745 FILLER_150_287
*26746 FILLER_150_295
*26747 FILLER_150_303
*26707 FILLER_150_31
*26748 FILLER_150_311
*26749 FILLER_150_319
*26750 FILLER_150_327
*26751 FILLER_150_329
*26752 FILLER_150_331
*26753 FILLER_150_339
*26754 FILLER_150_347
*26755 FILLER_150_355
*26756 FILLER_150_363
*26757 FILLER_150_371
*26758 FILLER_150_379
*26759 FILLER_150_387
*26760 FILLER_150_389
*26708 FILLER_150_39
*26761 FILLER_150_391
*26762 FILLER_150_399
*26763 FILLER_150_407
*26764 FILLER_150_415
*26765 FILLER_150_423
*26766 FILLER_150_431
*26767 FILLER_150_439
*26768 FILLER_150_447
*26769 FILLER_150_449
*26770 FILLER_150_451
*26771 FILLER_150_459
*26772 FILLER_150_467
*26709 FILLER_150_47
*26773 FILLER_150_475
*26774 FILLER_150_483
*26775 FILLER_150_491
*26776 FILLER_150_499
*26777 FILLER_150_507
*26778 FILLER_150_509
*26779 FILLER_150_511
*26780 FILLER_150_519
*26781 FILLER_150_527
*26782 FILLER_150_535
*26783 FILLER_150_543
*26710 FILLER_150_55
*26784 FILLER_150_551
*26785 FILLER_150_559
*26786 FILLER_150_567
*26787 FILLER_150_569
*26788 FILLER_150_571
*26789 FILLER_150_579
*26790 FILLER_150_587
*26791 FILLER_150_595
*26792 FILLER_150_603
*26793 FILLER_150_611
*26794 FILLER_150_619
*26795 FILLER_150_627
*26796 FILLER_150_629
*26711 FILLER_150_63
*26797 FILLER_150_631
*26798 FILLER_150_639
*26799 FILLER_150_647
*26800 FILLER_150_655
*26801 FILLER_150_663
*26802 FILLER_150_671
*26803 FILLER_150_679
*26804 FILLER_150_687
*26805 FILLER_150_689
*26806 FILLER_150_691
*26807 FILLER_150_699
*26808 FILLER_150_707
*26712 FILLER_150_71
*26809 FILLER_150_715
*26810 FILLER_150_723
*26811 FILLER_150_731
*26812 FILLER_150_739
*26813 FILLER_150_747
*26814 FILLER_150_749
*26815 FILLER_150_751
*26816 FILLER_150_759
*26817 FILLER_150_767
*26818 FILLER_150_775
*26819 FILLER_150_783
*26713 FILLER_150_79
*26820 FILLER_150_791
*26821 FILLER_150_799
*26703 FILLER_150_8
*26822 FILLER_150_807
*26823 FILLER_150_809
*26824 FILLER_150_811
*26825 FILLER_150_819
*26826 FILLER_150_827
*26827 FILLER_150_835
*26828 FILLER_150_843
*26829 FILLER_150_851
*26830 FILLER_150_859
*26831 FILLER_150_867
*26832 FILLER_150_869
*26714 FILLER_150_87
*26833 FILLER_150_871
*26834 FILLER_150_879
*26835 FILLER_150_887
*26715 FILLER_150_89
*26836 FILLER_150_895
*26837 FILLER_150_903
*26716 FILLER_150_91
*26838 FILLER_150_911
*26839 FILLER_150_919
*26840 FILLER_150_927
*26841 FILLER_150_929
*26842 FILLER_150_931
*26843 FILLER_150_939
*26844 FILLER_150_947
*26845 FILLER_150_955
*26846 FILLER_150_963
*26847 FILLER_150_971
*26848 FILLER_150_979
*26849 FILLER_150_987
*26850 FILLER_150_989
*26717 FILLER_150_99
*26851 FILLER_150_991
*26852 FILLER_150_999
*27022 FILLER_151_0
*27170 FILLER_151_1001
*27171 FILLER_151_1009
*27035 FILLER_151_101
*27172 FILLER_151_1017
*27173 FILLER_151_1019
*27174 FILLER_151_1021
*27175 FILLER_151_1029
*27176 FILLER_151_1037
*27177 FILLER_151_1045
*27178 FILLER_151_1053
*27179 FILLER_151_1061
*27180 FILLER_151_1069
*27181 FILLER_151_1077
*27182 FILLER_151_1079
*27183 FILLER_151_1081
*27184 FILLER_151_1089
*27036 FILLER_151_109
*27185 FILLER_151_1097
*27186 FILLER_151_1105
*27187 FILLER_151_1113
*27188 FILLER_151_1121
*27189 FILLER_151_1129
*27190 FILLER_151_1137
*27191 FILLER_151_1139
*27192 FILLER_151_1141
*27193 FILLER_151_1149
*27194 FILLER_151_1157
*27195 FILLER_151_1165
*27037 FILLER_151_117
*27196 FILLER_151_1173
*27197 FILLER_151_1181
*27198 FILLER_151_1189
*27038 FILLER_151_119
*27199 FILLER_151_1197
*27200 FILLER_151_1199
*27201 FILLER_151_1201
*27202 FILLER_151_1209
*27039 FILLER_151_121
*27203 FILLER_151_1217
*27204 FILLER_151_1225
*27205 FILLER_151_1233
*27206 FILLER_151_1241
*27207 FILLER_151_1249
*27208 FILLER_151_1257
*27209 FILLER_151_1259
*27210 FILLER_151_1261
*27211 FILLER_151_1269
*27212 FILLER_151_1277
*27213 FILLER_151_1285
*27040 FILLER_151_129
*27214 FILLER_151_1293
*27215 FILLER_151_1301
*27216 FILLER_151_1309
*27217 FILLER_151_1317
*27218 FILLER_151_1319
*27219 FILLER_151_1321
*27220 FILLER_151_1329
*27221 FILLER_151_1337
*27222 FILLER_151_1345
*27223 FILLER_151_1353
*27224 FILLER_151_1361
*27225 FILLER_151_1369
*27041 FILLER_151_137
*27226 FILLER_151_1377
*27227 FILLER_151_1379
*27228 FILLER_151_1381
*27229 FILLER_151_1389
*27230 FILLER_151_1397
*27231 FILLER_151_1405
*27232 FILLER_151_1413
*27233 FILLER_151_1421
*27234 FILLER_151_1429
*27235 FILLER_151_1437
*27236 FILLER_151_1439
*27237 FILLER_151_1441
*27238 FILLER_151_1449
*27042 FILLER_151_145
*27239 FILLER_151_1457
*27240 FILLER_151_1465
*27241 FILLER_151_1473
*27242 FILLER_151_1481
*27243 FILLER_151_1489
*27244 FILLER_151_1497
*27245 FILLER_151_1499
*27246 FILLER_151_1501
*27247 FILLER_151_1509
*27248 FILLER_151_1517
*27249 FILLER_151_1525
*27043 FILLER_151_153
*27250 FILLER_151_1533
*27251 FILLER_151_1541
*27252 FILLER_151_1549
*27253 FILLER_151_1557
*27254 FILLER_151_1559
*27255 FILLER_151_1561
*27256 FILLER_151_1569
*27257 FILLER_151_1577
*27258 FILLER_151_1585
*27259 FILLER_151_1593
*27024 FILLER_151_16
*27260 FILLER_151_1601
*27261 FILLER_151_1609
*27044 FILLER_151_161
*27262 FILLER_151_1617
*27263 FILLER_151_1619
*27264 FILLER_151_1621
*27265 FILLER_151_1629
*27266 FILLER_151_1637
*27267 FILLER_151_1645
*27268 FILLER_151_1653
*27269 FILLER_151_1661
*27270 FILLER_151_1669
*27271 FILLER_151_1677
*27272 FILLER_151_1679
*27273 FILLER_151_1681
*27274 FILLER_151_1689
*27045 FILLER_151_169
*27275 FILLER_151_1697
*27276 FILLER_151_1705
*27277 FILLER_151_1713
*27278 FILLER_151_1721
*27279 FILLER_151_1729
*27280 FILLER_151_1737
*27281 FILLER_151_1739
*27282 FILLER_151_1741
*27283 FILLER_151_1749
*27284 FILLER_151_1757
*27285 FILLER_151_1765
*27046 FILLER_151_177
*27286 FILLER_151_1773
*27287 FILLER_151_1781
*27288 FILLER_151_1789
*27047 FILLER_151_179
*27289 FILLER_151_1797
*27290 FILLER_151_1799
*27291 FILLER_151_1801
*27292 FILLER_151_1809
*27048 FILLER_151_181
*27293 FILLER_151_1817
*27294 FILLER_151_1825
*27295 FILLER_151_1833
*27296 FILLER_151_1841
*27297 FILLER_151_1849
*27298 FILLER_151_1857
*27299 FILLER_151_1859
*27300 FILLER_151_1861
*27301 FILLER_151_1869
*27302 FILLER_151_1877
*27303 FILLER_151_1885
*27049 FILLER_151_189
*27304 FILLER_151_1893
*27305 FILLER_151_1901
*27306 FILLER_151_1909
*27307 FILLER_151_1917
*27308 FILLER_151_1919
*27309 FILLER_151_1921
*27310 FILLER_151_1929
*27311 FILLER_151_1937
*27312 FILLER_151_1945
*27313 FILLER_151_1953
*27314 FILLER_151_1961
*27315 FILLER_151_1969
*27050 FILLER_151_197
*27316 FILLER_151_1977
*27317 FILLER_151_1979
*27318 FILLER_151_1981
*27319 FILLER_151_1989
*27320 FILLER_151_1997
*27321 FILLER_151_2005
*27322 FILLER_151_2013
*27323 FILLER_151_2021
*27324 FILLER_151_2029
*27325 FILLER_151_2037
*27326 FILLER_151_2039
*27327 FILLER_151_2041
*27328 FILLER_151_2049
*27051 FILLER_151_205
*27329 FILLER_151_2057
*27330 FILLER_151_2065
*27331 FILLER_151_2073
*27332 FILLER_151_2081
*27333 FILLER_151_2089
*27334 FILLER_151_2097
*27335 FILLER_151_2099
*27336 FILLER_151_2101
*27337 FILLER_151_2109
*27338 FILLER_151_2117
*27339 FILLER_151_2125
*27340 FILLER_151_2129
*27052 FILLER_151_213
*27053 FILLER_151_221
*27054 FILLER_151_229
*27055 FILLER_151_237
*27056 FILLER_151_239
*27025 FILLER_151_24
*27057 FILLER_151_241
*27058 FILLER_151_249
*27059 FILLER_151_257
*27060 FILLER_151_265
*27061 FILLER_151_273
*27062 FILLER_151_281
*27063 FILLER_151_289
*27064 FILLER_151_297
*27065 FILLER_151_299
*27066 FILLER_151_301
*27067 FILLER_151_309
*27068 FILLER_151_317
*27026 FILLER_151_32
*27069 FILLER_151_325
*27070 FILLER_151_333
*27071 FILLER_151_341
*27072 FILLER_151_349
*27073 FILLER_151_357
*27074 FILLER_151_359
*27075 FILLER_151_361
*27076 FILLER_151_369
*27077 FILLER_151_377
*27078 FILLER_151_385
*27079 FILLER_151_393
*27027 FILLER_151_40
*27080 FILLER_151_401
*27081 FILLER_151_409
*27082 FILLER_151_417
*27083 FILLER_151_419
*27084 FILLER_151_421
*27085 FILLER_151_429
*27086 FILLER_151_437
*27087 FILLER_151_445
*27088 FILLER_151_453
*27089 FILLER_151_461
*27090 FILLER_151_469
*27091 FILLER_151_477
*27092 FILLER_151_479
*27028 FILLER_151_48
*27093 FILLER_151_481
*27094 FILLER_151_489
*27095 FILLER_151_497
*27096 FILLER_151_505
*27097 FILLER_151_513
*27098 FILLER_151_521
*27099 FILLER_151_529
*27100 FILLER_151_537
*27101 FILLER_151_539
*27102 FILLER_151_541
*27103 FILLER_151_549
*27104 FILLER_151_557
*27029 FILLER_151_56
*27105 FILLER_151_565
*27106 FILLER_151_573
*27107 FILLER_151_581
*27108 FILLER_151_589
*27109 FILLER_151_597
*27110 FILLER_151_599
*27111 FILLER_151_601
*27112 FILLER_151_609
*27030 FILLER_151_61
*27113 FILLER_151_617
*27114 FILLER_151_625
*27115 FILLER_151_633
*27116 FILLER_151_641
*27117 FILLER_151_649
*27118 FILLER_151_657
*27119 FILLER_151_659
*27120 FILLER_151_661
*27121 FILLER_151_669
*27122 FILLER_151_677
*27123 FILLER_151_685
*27031 FILLER_151_69
*27124 FILLER_151_693
*27125 FILLER_151_701
*27126 FILLER_151_709
*27127 FILLER_151_717
*27128 FILLER_151_719
*27129 FILLER_151_721
*27130 FILLER_151_729
*27131 FILLER_151_737
*27132 FILLER_151_745
*27133 FILLER_151_753
*27134 FILLER_151_761
*27135 FILLER_151_769
*27032 FILLER_151_77
*27136 FILLER_151_777
*27137 FILLER_151_779
*27138 FILLER_151_781
*27139 FILLER_151_789
*27140 FILLER_151_797
*27023 FILLER_151_8
*27141 FILLER_151_805
*27142 FILLER_151_813
*27143 FILLER_151_821
*27144 FILLER_151_829
*27145 FILLER_151_837
*27146 FILLER_151_839
*27147 FILLER_151_841
*27148 FILLER_151_849
*27033 FILLER_151_85
*27149 FILLER_151_857
*27150 FILLER_151_865
*27151 FILLER_151_873
*27152 FILLER_151_881
*27153 FILLER_151_889
*27154 FILLER_151_897
*27155 FILLER_151_899
*27156 FILLER_151_901
*27157 FILLER_151_909
*27158 FILLER_151_917
*27159 FILLER_151_925
*27034 FILLER_151_93
*27160 FILLER_151_933
*27161 FILLER_151_941
*27162 FILLER_151_949
*27163 FILLER_151_957
*27164 FILLER_151_959
*27165 FILLER_151_961
*27166 FILLER_151_969
*27167 FILLER_151_977
*27168 FILLER_151_985
*27169 FILLER_151_993
*27341 FILLER_152_0
*27492 FILLER_152_1007
*27493 FILLER_152_1015
*27494 FILLER_152_1023
*27495 FILLER_152_1031
*27496 FILLER_152_1039
*27497 FILLER_152_1047
*27498 FILLER_152_1049
*27499 FILLER_152_1051
*27500 FILLER_152_1059
*27501 FILLER_152_1067
*27357 FILLER_152_107
*27502 FILLER_152_1075
*27503 FILLER_152_1083
*27504 FILLER_152_1091
*27505 FILLER_152_1099
*27506 FILLER_152_1107
*27507 FILLER_152_1109
*27508 FILLER_152_1111
*27509 FILLER_152_1119
*27510 FILLER_152_1127
*27511 FILLER_152_1135
*27512 FILLER_152_1143
*27358 FILLER_152_115
*27513 FILLER_152_1151
*27514 FILLER_152_1159
*27515 FILLER_152_1167
*27516 FILLER_152_1169
*27517 FILLER_152_1171
*27518 FILLER_152_1179
*27519 FILLER_152_1187
*27520 FILLER_152_1195
*27521 FILLER_152_1203
*27522 FILLER_152_1211
*27523 FILLER_152_1219
*27524 FILLER_152_1227
*27525 FILLER_152_1229
*27359 FILLER_152_123
*27526 FILLER_152_1231
*27527 FILLER_152_1239
*27528 FILLER_152_1247
*27529 FILLER_152_1255
*27530 FILLER_152_1263
*27531 FILLER_152_1271
*27532 FILLER_152_1279
*27533 FILLER_152_1287
*27534 FILLER_152_1289
*27535 FILLER_152_1291
*27536 FILLER_152_1299
*27537 FILLER_152_1307
*27360 FILLER_152_131
*27538 FILLER_152_1315
*27539 FILLER_152_1323
*27540 FILLER_152_1331
*27541 FILLER_152_1339
*27542 FILLER_152_1347
*27543 FILLER_152_1349
*27544 FILLER_152_1351
*27545 FILLER_152_1359
*27546 FILLER_152_1367
*27547 FILLER_152_1375
*27548 FILLER_152_1383
*27361 FILLER_152_139
*27549 FILLER_152_1391
*27550 FILLER_152_1399
*27551 FILLER_152_1407
*27552 FILLER_152_1409
*27553 FILLER_152_1411
*27554 FILLER_152_1419
*27555 FILLER_152_1427
*27556 FILLER_152_1435
*27557 FILLER_152_1443
*27558 FILLER_152_1451
*27559 FILLER_152_1459
*27560 FILLER_152_1467
*27561 FILLER_152_1469
*27362 FILLER_152_147
*27562 FILLER_152_1471
*27563 FILLER_152_1479
*27564 FILLER_152_1487
*27363 FILLER_152_149
*27565 FILLER_152_1495
*27566 FILLER_152_1503
*27364 FILLER_152_151
*27567 FILLER_152_1511
*27568 FILLER_152_1519
*27569 FILLER_152_1527
*27570 FILLER_152_1529
*27571 FILLER_152_1531
*27572 FILLER_152_1539
*27573 FILLER_152_1547
*27574 FILLER_152_1555
*27575 FILLER_152_1563
*27576 FILLER_152_1571
*27577 FILLER_152_1579
*27578 FILLER_152_1587
*27579 FILLER_152_1589
*27365 FILLER_152_159
*27580 FILLER_152_1591
*27581 FILLER_152_1599
*27343 FILLER_152_16
*27582 FILLER_152_1607
*27583 FILLER_152_1615
*27584 FILLER_152_1623
*27585 FILLER_152_1631
*27586 FILLER_152_1639
*27587 FILLER_152_1647
*27588 FILLER_152_1649
*27589 FILLER_152_1651
*27590 FILLER_152_1659
*27591 FILLER_152_1667
*27366 FILLER_152_167
*27592 FILLER_152_1675
*27593 FILLER_152_1683
*27594 FILLER_152_1691
*27595 FILLER_152_1699
*27596 FILLER_152_1707
*27597 FILLER_152_1709
*27598 FILLER_152_1711
*27599 FILLER_152_1719
*27600 FILLER_152_1727
*27601 FILLER_152_1735
*27602 FILLER_152_1743
*27367 FILLER_152_175
*27603 FILLER_152_1751
*27604 FILLER_152_1759
*27605 FILLER_152_1767
*27606 FILLER_152_1769
*27607 FILLER_152_1771
*27608 FILLER_152_1779
*27609 FILLER_152_1787
*27610 FILLER_152_1795
*27611 FILLER_152_1803
*27612 FILLER_152_1811
*27613 FILLER_152_1819
*27614 FILLER_152_1827
*27615 FILLER_152_1829
*27368 FILLER_152_183
*27616 FILLER_152_1831
*27617 FILLER_152_1839
*27618 FILLER_152_1847
*27619 FILLER_152_1855
*27620 FILLER_152_1863
*27621 FILLER_152_1871
*27622 FILLER_152_1879
*27623 FILLER_152_1887
*27624 FILLER_152_1889
*27625 FILLER_152_1891
*27626 FILLER_152_1899
*27627 FILLER_152_1907
*27369 FILLER_152_191
*27628 FILLER_152_1915
*27629 FILLER_152_1923
*27630 FILLER_152_1931
*27631 FILLER_152_1939
*27632 FILLER_152_1947
*27633 FILLER_152_1949
*27634 FILLER_152_1951
*27635 FILLER_152_1959
*27636 FILLER_152_1967
*27637 FILLER_152_1975
*27638 FILLER_152_1983
*27370 FILLER_152_199
*27639 FILLER_152_1991
*27640 FILLER_152_1999
*27641 FILLER_152_2007
*27642 FILLER_152_2009
*27643 FILLER_152_2011
*27644 FILLER_152_2019
*27645 FILLER_152_2027
*27646 FILLER_152_2035
*27647 FILLER_152_2043
*27648 FILLER_152_2051
*27649 FILLER_152_2059
*27650 FILLER_152_2067
*27651 FILLER_152_2069
*27371 FILLER_152_207
*27652 FILLER_152_2071
*27653 FILLER_152_2079
*27654 FILLER_152_2087
*27372 FILLER_152_209
*27655 FILLER_152_2095
*27656 FILLER_152_2103
*27373 FILLER_152_211
*27657 FILLER_152_2111
*27658 FILLER_152_2119
*27659 FILLER_152_2127
*27660 FILLER_152_2129
*27374 FILLER_152_219
*27375 FILLER_152_227
*27376 FILLER_152_235
*27344 FILLER_152_24
*27377 FILLER_152_243
*27378 FILLER_152_251
*27379 FILLER_152_259
*27380 FILLER_152_267
*27381 FILLER_152_269
*27382 FILLER_152_271
*27383 FILLER_152_279
*27345 FILLER_152_28
*27384 FILLER_152_287
*27385 FILLER_152_295
*27386 FILLER_152_303
*27346 FILLER_152_31
*27387 FILLER_152_311
*27388 FILLER_152_319
*27389 FILLER_152_327
*27390 FILLER_152_329
*27391 FILLER_152_331
*27392 FILLER_152_339
*27393 FILLER_152_347
*27394 FILLER_152_355
*27395 FILLER_152_363
*27396 FILLER_152_371
*27397 FILLER_152_379
*27398 FILLER_152_387
*27399 FILLER_152_389
*27347 FILLER_152_39
*27400 FILLER_152_391
*27401 FILLER_152_399
*27402 FILLER_152_407
*27403 FILLER_152_415
*27404 FILLER_152_423
*27405 FILLER_152_431
*27406 FILLER_152_439
*27407 FILLER_152_447
*27408 FILLER_152_449
*27409 FILLER_152_451
*27410 FILLER_152_459
*27411 FILLER_152_467
*27348 FILLER_152_47
*27412 FILLER_152_475
*27413 FILLER_152_483
*27414 FILLER_152_491
*27415 FILLER_152_499
*27416 FILLER_152_507
*27417 FILLER_152_509
*27418 FILLER_152_511
*27419 FILLER_152_519
*27420 FILLER_152_527
*27421 FILLER_152_535
*27422 FILLER_152_543
*27349 FILLER_152_55
*27423 FILLER_152_551
*27424 FILLER_152_559
*27425 FILLER_152_567
*27426 FILLER_152_569
*27427 FILLER_152_571
*27428 FILLER_152_579
*27429 FILLER_152_587
*27430 FILLER_152_595
*27431 FILLER_152_603
*27432 FILLER_152_611
*27433 FILLER_152_619
*27434 FILLER_152_627
*27435 FILLER_152_629
*27350 FILLER_152_63
*27436 FILLER_152_631
*27437 FILLER_152_639
*27438 FILLER_152_647
*27439 FILLER_152_655
*27440 FILLER_152_663
*27441 FILLER_152_671
*27442 FILLER_152_679
*27443 FILLER_152_687
*27444 FILLER_152_689
*27445 FILLER_152_691
*27446 FILLER_152_699
*27447 FILLER_152_707
*27351 FILLER_152_71
*27448 FILLER_152_715
*27449 FILLER_152_723
*27450 FILLER_152_731
*27451 FILLER_152_739
*27452 FILLER_152_747
*27453 FILLER_152_749
*27454 FILLER_152_751
*27455 FILLER_152_759
*27456 FILLER_152_767
*27457 FILLER_152_775
*27458 FILLER_152_783
*27352 FILLER_152_79
*27459 FILLER_152_791
*27460 FILLER_152_799
*27342 FILLER_152_8
*27461 FILLER_152_807
*27462 FILLER_152_809
*27463 FILLER_152_811
*27464 FILLER_152_819
*27465 FILLER_152_827
*27466 FILLER_152_835
*27467 FILLER_152_843
*27468 FILLER_152_851
*27469 FILLER_152_859
*27470 FILLER_152_867
*27471 FILLER_152_869
*27353 FILLER_152_87
*27472 FILLER_152_871
*27473 FILLER_152_879
*27474 FILLER_152_887
*27354 FILLER_152_89
*27475 FILLER_152_895
*27476 FILLER_152_903
*27355 FILLER_152_91
*27477 FILLER_152_911
*27478 FILLER_152_919
*27479 FILLER_152_927
*27480 FILLER_152_929
*27481 FILLER_152_931
*27482 FILLER_152_939
*27483 FILLER_152_947
*27484 FILLER_152_955
*27485 FILLER_152_963
*27486 FILLER_152_971
*27487 FILLER_152_979
*27488 FILLER_152_987
*27489 FILLER_152_989
*27356 FILLER_152_99
*27490 FILLER_152_991
*27491 FILLER_152_999
*27661 FILLER_153_0
*27808 FILLER_153_1001
*27809 FILLER_153_1009
*27674 FILLER_153_101
*27810 FILLER_153_1017
*27811 FILLER_153_1019
*27812 FILLER_153_1021
*27813 FILLER_153_1029
*27814 FILLER_153_1037
*27815 FILLER_153_1045
*27816 FILLER_153_1053
*27817 FILLER_153_1061
*27818 FILLER_153_1069
*27819 FILLER_153_1077
*27820 FILLER_153_1079
*27821 FILLER_153_1081
*27822 FILLER_153_1089
*27675 FILLER_153_109
*27823 FILLER_153_1097
*27824 FILLER_153_1105
*27825 FILLER_153_1113
*27826 FILLER_153_1121
*27827 FILLER_153_1129
*27828 FILLER_153_1137
*27829 FILLER_153_1139
*27830 FILLER_153_1141
*27831 FILLER_153_1149
*27832 FILLER_153_1157
*27833 FILLER_153_1165
*27676 FILLER_153_117
*27834 FILLER_153_1173
*27835 FILLER_153_1181
*27836 FILLER_153_1189
*27677 FILLER_153_119
*27837 FILLER_153_1197
*27838 FILLER_153_1199
*27839 FILLER_153_1201
*27840 FILLER_153_1209
*27678 FILLER_153_121
*27841 FILLER_153_1217
*27842 FILLER_153_1225
*27843 FILLER_153_1233
*27844 FILLER_153_1241
*27845 FILLER_153_1249
*27846 FILLER_153_1257
*27847 FILLER_153_1259
*27848 FILLER_153_1261
*27849 FILLER_153_1269
*27850 FILLER_153_1277
*27851 FILLER_153_1285
*27679 FILLER_153_129
*27852 FILLER_153_1293
*27853 FILLER_153_1301
*27854 FILLER_153_1309
*27855 FILLER_153_1317
*27856 FILLER_153_1319
*27857 FILLER_153_1321
*27858 FILLER_153_1329
*27859 FILLER_153_1337
*27860 FILLER_153_1345
*27861 FILLER_153_1353
*27862 FILLER_153_1361
*27863 FILLER_153_1369
*27680 FILLER_153_137
*27864 FILLER_153_1377
*27865 FILLER_153_1379
*27866 FILLER_153_1381
*27867 FILLER_153_1389
*27868 FILLER_153_1397
*27869 FILLER_153_1405
*27870 FILLER_153_1413
*27871 FILLER_153_1421
*27872 FILLER_153_1429
*27873 FILLER_153_1437
*27874 FILLER_153_1439
*27875 FILLER_153_1441
*27876 FILLER_153_1449
*27681 FILLER_153_145
*27877 FILLER_153_1457
*27878 FILLER_153_1465
*27879 FILLER_153_1473
*27880 FILLER_153_1481
*27881 FILLER_153_1489
*27882 FILLER_153_1497
*27883 FILLER_153_1499
*27884 FILLER_153_1501
*27885 FILLER_153_1509
*27886 FILLER_153_1517
*27887 FILLER_153_1525
*27682 FILLER_153_153
*27888 FILLER_153_1533
*27889 FILLER_153_1541
*27890 FILLER_153_1549
*27891 FILLER_153_1557
*27892 FILLER_153_1559
*27893 FILLER_153_1561
*27894 FILLER_153_1569
*27895 FILLER_153_1577
*27896 FILLER_153_1585
*27897 FILLER_153_1593
*27663 FILLER_153_16
*27898 FILLER_153_1601
*27899 FILLER_153_1609
*27683 FILLER_153_161
*27900 FILLER_153_1617
*27901 FILLER_153_1619
*27902 FILLER_153_1621
*27903 FILLER_153_1629
*27904 FILLER_153_1637
*27905 FILLER_153_1645
*27906 FILLER_153_1653
*27907 FILLER_153_1661
*27908 FILLER_153_1669
*27909 FILLER_153_1677
*27910 FILLER_153_1679
*27911 FILLER_153_1681
*27912 FILLER_153_1689
*27684 FILLER_153_169
*27913 FILLER_153_1697
*27914 FILLER_153_1705
*27915 FILLER_153_1713
*27916 FILLER_153_1721
*27917 FILLER_153_1729
*27918 FILLER_153_1737
*27919 FILLER_153_1739
*27920 FILLER_153_1741
*27921 FILLER_153_1749
*27922 FILLER_153_1757
*27923 FILLER_153_1765
*27685 FILLER_153_177
*27924 FILLER_153_1773
*27925 FILLER_153_1781
*27926 FILLER_153_1789
*27686 FILLER_153_179
*27927 FILLER_153_1797
*27928 FILLER_153_1799
*27929 FILLER_153_1801
*27930 FILLER_153_1809
*27687 FILLER_153_181
*27931 FILLER_153_1817
*27932 FILLER_153_1825
*27933 FILLER_153_1833
*27934 FILLER_153_1841
*27935 FILLER_153_1849
*27936 FILLER_153_1857
*27937 FILLER_153_1859
*27938 FILLER_153_1861
*27939 FILLER_153_1869
*27940 FILLER_153_1877
*27941 FILLER_153_1885
*27688 FILLER_153_189
*27942 FILLER_153_1893
*27943 FILLER_153_1901
*27944 FILLER_153_1909
*27945 FILLER_153_1917
*27946 FILLER_153_1919
*27947 FILLER_153_1921
*27948 FILLER_153_1929
*27949 FILLER_153_1937
*27950 FILLER_153_1945
*27951 FILLER_153_1953
*27952 FILLER_153_1961
*27953 FILLER_153_1969
*27689 FILLER_153_197
*27954 FILLER_153_1977
*27955 FILLER_153_1979
*27956 FILLER_153_1981
*27957 FILLER_153_1989
*27958 FILLER_153_1997
*27959 FILLER_153_2005
*27960 FILLER_153_2013
*27961 FILLER_153_2021
*27962 FILLER_153_2029
*27963 FILLER_153_2037
*27964 FILLER_153_2039
*27965 FILLER_153_2041
*27966 FILLER_153_2049
*27690 FILLER_153_205
*27967 FILLER_153_2057
*27968 FILLER_153_2065
*27969 FILLER_153_2073
*27970 FILLER_153_2081
*27971 FILLER_153_2089
*27972 FILLER_153_2097
*27973 FILLER_153_2099
*27974 FILLER_153_2101
*27975 FILLER_153_2109
*27976 FILLER_153_2117
*27977 FILLER_153_2125
*27978 FILLER_153_2129
*27691 FILLER_153_213
*27692 FILLER_153_221
*27693 FILLER_153_229
*27694 FILLER_153_237
*27695 FILLER_153_239
*27664 FILLER_153_24
*27696 FILLER_153_241
*27697 FILLER_153_249
*27698 FILLER_153_257
*27699 FILLER_153_265
*27700 FILLER_153_273
*27701 FILLER_153_281
*27702 FILLER_153_289
*27703 FILLER_153_297
*27704 FILLER_153_299
*27705 FILLER_153_301
*27706 FILLER_153_309
*27707 FILLER_153_317
*27665 FILLER_153_32
*27708 FILLER_153_325
*27709 FILLER_153_333
*27710 FILLER_153_341
*27711 FILLER_153_349
*27712 FILLER_153_357
*27713 FILLER_153_359
*27714 FILLER_153_361
*27715 FILLER_153_369
*27716 FILLER_153_377
*27717 FILLER_153_385
*27718 FILLER_153_393
*27666 FILLER_153_40
*27719 FILLER_153_401
*27720 FILLER_153_409
*27721 FILLER_153_417
*27722 FILLER_153_419
*27723 FILLER_153_421
*27724 FILLER_153_429
*27725 FILLER_153_437
*27726 FILLER_153_445
*27727 FILLER_153_453
*27728 FILLER_153_461
*27729 FILLER_153_469
*27730 FILLER_153_477
*27731 FILLER_153_479
*27667 FILLER_153_48
*27732 FILLER_153_481
*27733 FILLER_153_489
*27734 FILLER_153_497
*27735 FILLER_153_505
*27736 FILLER_153_513
*27737 FILLER_153_521
*27738 FILLER_153_529
*27739 FILLER_153_537
*27740 FILLER_153_539
*27741 FILLER_153_541
*27742 FILLER_153_549
*27743 FILLER_153_557
*27668 FILLER_153_56
*27744 FILLER_153_565
*27745 FILLER_153_573
*27746 FILLER_153_581
*27747 FILLER_153_589
*27748 FILLER_153_597
*27749 FILLER_153_599
*27750 FILLER_153_601
*27751 FILLER_153_609
*27669 FILLER_153_61
*27752 FILLER_153_618
*27753 FILLER_153_626
*27754 FILLER_153_634
*27755 FILLER_153_642
*27756 FILLER_153_650
*27757 FILLER_153_658
*27758 FILLER_153_661
*27759 FILLER_153_669
*27760 FILLER_153_677
*27761 FILLER_153_685
*27670 FILLER_153_69
*27762 FILLER_153_693
*27763 FILLER_153_701
*27764 FILLER_153_709
*27765 FILLER_153_717
*27766 FILLER_153_719
*27767 FILLER_153_721
*27768 FILLER_153_729
*27769 FILLER_153_737
*27770 FILLER_153_745
*27771 FILLER_153_753
*27772 FILLER_153_761
*27773 FILLER_153_769
*27671 FILLER_153_77
*27774 FILLER_153_777
*27775 FILLER_153_779
*27776 FILLER_153_781
*27777 FILLER_153_789
*27778 FILLER_153_797
*27662 FILLER_153_8
*27779 FILLER_153_805
*27780 FILLER_153_813
*27781 FILLER_153_821
*27782 FILLER_153_829
*27783 FILLER_153_837
*27784 FILLER_153_839
*27785 FILLER_153_841
*27786 FILLER_153_849
*27672 FILLER_153_85
*27787 FILLER_153_857
*27788 FILLER_153_865
*27789 FILLER_153_873
*27790 FILLER_153_881
*27791 FILLER_153_889
*27792 FILLER_153_897
*27793 FILLER_153_899
*27794 FILLER_153_901
*27795 FILLER_153_909
*27796 FILLER_153_917
*27797 FILLER_153_925
*27673 FILLER_153_93
*27798 FILLER_153_933
*27799 FILLER_153_941
*27800 FILLER_153_949
*27801 FILLER_153_957
*27802 FILLER_153_959
*27803 FILLER_153_961
*27804 FILLER_153_969
*27805 FILLER_153_977
*27806 FILLER_153_985
*27807 FILLER_153_993
*27979 FILLER_154_0
*28130 FILLER_154_1007
*28131 FILLER_154_1015
*28132 FILLER_154_1023
*28133 FILLER_154_1031
*28134 FILLER_154_1039
*28135 FILLER_154_1047
*28136 FILLER_154_1049
*28137 FILLER_154_1051
*28138 FILLER_154_1059
*28139 FILLER_154_1067
*27995 FILLER_154_107
*28140 FILLER_154_1075
*28141 FILLER_154_1083
*28142 FILLER_154_1091
*28143 FILLER_154_1099
*28144 FILLER_154_1107
*28145 FILLER_154_1109
*28146 FILLER_154_1111
*28147 FILLER_154_1119
*28148 FILLER_154_1127
*28149 FILLER_154_1135
*28150 FILLER_154_1143
*27996 FILLER_154_115
*28151 FILLER_154_1151
*28152 FILLER_154_1159
*28153 FILLER_154_1167
*28154 FILLER_154_1169
*28155 FILLER_154_1171
*28156 FILLER_154_1179
*28157 FILLER_154_1187
*28158 FILLER_154_1195
*28159 FILLER_154_1203
*28160 FILLER_154_1211
*28161 FILLER_154_1219
*28162 FILLER_154_1227
*28163 FILLER_154_1229
*27997 FILLER_154_123
*28164 FILLER_154_1231
*28165 FILLER_154_1239
*28166 FILLER_154_1247
*28167 FILLER_154_1255
*28168 FILLER_154_1263
*28169 FILLER_154_1271
*28170 FILLER_154_1279
*28171 FILLER_154_1287
*28172 FILLER_154_1289
*28173 FILLER_154_1291
*28174 FILLER_154_1299
*28175 FILLER_154_1307
*27998 FILLER_154_131
*28176 FILLER_154_1315
*28177 FILLER_154_1323
*28178 FILLER_154_1331
*28179 FILLER_154_1339
*28180 FILLER_154_1347
*28181 FILLER_154_1349
*28182 FILLER_154_1351
*28183 FILLER_154_1359
*28184 FILLER_154_1367
*28185 FILLER_154_1375
*28186 FILLER_154_1383
*27999 FILLER_154_139
*28187 FILLER_154_1391
*28188 FILLER_154_1399
*28189 FILLER_154_1407
*28190 FILLER_154_1409
*28191 FILLER_154_1411
*28192 FILLER_154_1419
*28193 FILLER_154_1427
*28194 FILLER_154_1435
*28195 FILLER_154_1443
*28196 FILLER_154_1451
*28197 FILLER_154_1459
*28198 FILLER_154_1467
*28199 FILLER_154_1469
*28000 FILLER_154_147
*28200 FILLER_154_1471
*28201 FILLER_154_1479
*28202 FILLER_154_1487
*28001 FILLER_154_149
*28203 FILLER_154_1495
*28204 FILLER_154_1503
*28002 FILLER_154_151
*28205 FILLER_154_1511
*28206 FILLER_154_1519
*28207 FILLER_154_1527
*28208 FILLER_154_1529
*28209 FILLER_154_1531
*28210 FILLER_154_1539
*28211 FILLER_154_1547
*28212 FILLER_154_1555
*28213 FILLER_154_1563
*28214 FILLER_154_1571
*28215 FILLER_154_1579
*28216 FILLER_154_1587
*28217 FILLER_154_1589
*28003 FILLER_154_159
*28218 FILLER_154_1591
*28219 FILLER_154_1599
*27981 FILLER_154_16
*28220 FILLER_154_1607
*28221 FILLER_154_1615
*28222 FILLER_154_1623
*28223 FILLER_154_1631
*28224 FILLER_154_1639
*28225 FILLER_154_1647
*28226 FILLER_154_1649
*28227 FILLER_154_1651
*28228 FILLER_154_1659
*28229 FILLER_154_1667
*28004 FILLER_154_167
*28230 FILLER_154_1675
*28231 FILLER_154_1683
*28232 FILLER_154_1691
*28233 FILLER_154_1699
*28234 FILLER_154_1707
*28235 FILLER_154_1709
*28236 FILLER_154_1711
*28237 FILLER_154_1719
*28238 FILLER_154_1727
*28239 FILLER_154_1735
*28240 FILLER_154_1743
*28005 FILLER_154_175
*28241 FILLER_154_1751
*28242 FILLER_154_1759
*28243 FILLER_154_1767
*28244 FILLER_154_1769
*28245 FILLER_154_1771
*28246 FILLER_154_1779
*28247 FILLER_154_1787
*28248 FILLER_154_1795
*28249 FILLER_154_1803
*28250 FILLER_154_1811
*28251 FILLER_154_1819
*28252 FILLER_154_1827
*28253 FILLER_154_1829
*28006 FILLER_154_183
*28254 FILLER_154_1831
*28255 FILLER_154_1839
*28256 FILLER_154_1847
*28257 FILLER_154_1855
*28258 FILLER_154_1863
*28259 FILLER_154_1871
*28260 FILLER_154_1879
*28261 FILLER_154_1887
*28262 FILLER_154_1889
*28263 FILLER_154_1891
*28264 FILLER_154_1899
*28265 FILLER_154_1907
*28007 FILLER_154_191
*28266 FILLER_154_1915
*28267 FILLER_154_1923
*28268 FILLER_154_1931
*28269 FILLER_154_1939
*28270 FILLER_154_1947
*28271 FILLER_154_1949
*28272 FILLER_154_1951
*28273 FILLER_154_1959
*28274 FILLER_154_1967
*28275 FILLER_154_1975
*28276 FILLER_154_1983
*28008 FILLER_154_199
*28277 FILLER_154_1991
*28278 FILLER_154_1999
*28279 FILLER_154_2007
*28280 FILLER_154_2009
*28281 FILLER_154_2011
*28282 FILLER_154_2019
*28283 FILLER_154_2027
*28284 FILLER_154_2035
*28285 FILLER_154_2043
*28286 FILLER_154_2051
*28287 FILLER_154_2059
*28288 FILLER_154_2067
*28289 FILLER_154_2069
*28009 FILLER_154_207
*28290 FILLER_154_2071
*28291 FILLER_154_2079
*28292 FILLER_154_2087
*28010 FILLER_154_209
*28293 FILLER_154_2095
*28294 FILLER_154_2103
*28011 FILLER_154_211
*28295 FILLER_154_2111
*28296 FILLER_154_2119
*28297 FILLER_154_2127
*28298 FILLER_154_2129
*28012 FILLER_154_219
*28013 FILLER_154_227
*28014 FILLER_154_235
*27982 FILLER_154_24
*28015 FILLER_154_243
*28016 FILLER_154_251
*28017 FILLER_154_259
*28018 FILLER_154_267
*28019 FILLER_154_269
*28020 FILLER_154_271
*28021 FILLER_154_279
*27983 FILLER_154_28
*28022 FILLER_154_287
*28023 FILLER_154_295
*28024 FILLER_154_303
*27984 FILLER_154_31
*28025 FILLER_154_311
*28026 FILLER_154_319
*28027 FILLER_154_327
*28028 FILLER_154_329
*28029 FILLER_154_331
*28030 FILLER_154_339
*28031 FILLER_154_347
*28032 FILLER_154_355
*28033 FILLER_154_363
*28034 FILLER_154_371
*28035 FILLER_154_379
*28036 FILLER_154_387
*28037 FILLER_154_389
*27985 FILLER_154_39
*28038 FILLER_154_391
*28039 FILLER_154_399
*28040 FILLER_154_407
*28041 FILLER_154_415
*28042 FILLER_154_423
*28043 FILLER_154_431
*28044 FILLER_154_439
*28045 FILLER_154_447
*28046 FILLER_154_449
*28047 FILLER_154_451
*28048 FILLER_154_459
*28049 FILLER_154_467
*27986 FILLER_154_47
*28050 FILLER_154_475
*28051 FILLER_154_483
*28052 FILLER_154_491
*28053 FILLER_154_499
*28054 FILLER_154_507
*28055 FILLER_154_509
*28056 FILLER_154_511
*28057 FILLER_154_519
*28058 FILLER_154_527
*28059 FILLER_154_535
*28060 FILLER_154_543
*27987 FILLER_154_55
*28061 FILLER_154_551
*28062 FILLER_154_559
*28063 FILLER_154_567
*28064 FILLER_154_569
*28065 FILLER_154_571
*28066 FILLER_154_579
*28067 FILLER_154_587
*28068 FILLER_154_595
*28069 FILLER_154_603
*28070 FILLER_154_611
*28071 FILLER_154_619
*28072 FILLER_154_627
*28073 FILLER_154_629
*27988 FILLER_154_63
*28074 FILLER_154_631
*28075 FILLER_154_639
*28076 FILLER_154_647
*28077 FILLER_154_655
*28078 FILLER_154_663
*28079 FILLER_154_671
*28080 FILLER_154_679
*28081 FILLER_154_687
*28082 FILLER_154_689
*28083 FILLER_154_691
*28084 FILLER_154_699
*28085 FILLER_154_707
*27989 FILLER_154_71
*28086 FILLER_154_715
*28087 FILLER_154_723
*28088 FILLER_154_731
*28089 FILLER_154_739
*28090 FILLER_154_747
*28091 FILLER_154_749
*28092 FILLER_154_751
*28093 FILLER_154_759
*28094 FILLER_154_767
*28095 FILLER_154_775
*28096 FILLER_154_783
*27990 FILLER_154_79
*28097 FILLER_154_791
*28098 FILLER_154_799
*27980 FILLER_154_8
*28099 FILLER_154_807
*28100 FILLER_154_809
*28101 FILLER_154_811
*28102 FILLER_154_819
*28103 FILLER_154_827
*28104 FILLER_154_835
*28105 FILLER_154_843
*28106 FILLER_154_851
*28107 FILLER_154_859
*28108 FILLER_154_867
*28109 FILLER_154_869
*27991 FILLER_154_87
*28110 FILLER_154_871
*28111 FILLER_154_879
*28112 FILLER_154_887
*27992 FILLER_154_89
*28113 FILLER_154_895
*28114 FILLER_154_903
*27993 FILLER_154_91
*28115 FILLER_154_911
*28116 FILLER_154_919
*28117 FILLER_154_927
*28118 FILLER_154_929
*28119 FILLER_154_931
*28120 FILLER_154_939
*28121 FILLER_154_947
*28122 FILLER_154_955
*28123 FILLER_154_963
*28124 FILLER_154_971
*28125 FILLER_154_979
*28126 FILLER_154_987
*28127 FILLER_154_989
*27994 FILLER_154_99
*28128 FILLER_154_991
*28129 FILLER_154_999
*28299 FILLER_155_0
*28447 FILLER_155_1001
*28448 FILLER_155_1009
*28312 FILLER_155_101
*28449 FILLER_155_1017
*28450 FILLER_155_1019
*28451 FILLER_155_1021
*28452 FILLER_155_1029
*28453 FILLER_155_1037
*28454 FILLER_155_1045
*28455 FILLER_155_1053
*28456 FILLER_155_1061
*28457 FILLER_155_1069
*28458 FILLER_155_1077
*28459 FILLER_155_1079
*28460 FILLER_155_1081
*28461 FILLER_155_1089
*28313 FILLER_155_109
*28462 FILLER_155_1097
*28463 FILLER_155_1105
*28464 FILLER_155_1113
*28465 FILLER_155_1121
*28466 FILLER_155_1129
*28467 FILLER_155_1137
*28468 FILLER_155_1139
*28469 FILLER_155_1141
*28470 FILLER_155_1149
*28471 FILLER_155_1157
*28472 FILLER_155_1165
*28314 FILLER_155_117
*28473 FILLER_155_1173
*28474 FILLER_155_1181
*28475 FILLER_155_1189
*28315 FILLER_155_119
*28476 FILLER_155_1197
*28477 FILLER_155_1199
*28478 FILLER_155_1201
*28479 FILLER_155_1209
*28316 FILLER_155_121
*28480 FILLER_155_1217
*28481 FILLER_155_1225
*28482 FILLER_155_1233
*28483 FILLER_155_1241
*28484 FILLER_155_1249
*28485 FILLER_155_1257
*28486 FILLER_155_1259
*28487 FILLER_155_1261
*28488 FILLER_155_1269
*28489 FILLER_155_1277
*28490 FILLER_155_1285
*28317 FILLER_155_129
*28491 FILLER_155_1293
*28492 FILLER_155_1301
*28493 FILLER_155_1309
*28494 FILLER_155_1317
*28495 FILLER_155_1319
*28496 FILLER_155_1321
*28497 FILLER_155_1329
*28498 FILLER_155_1337
*28499 FILLER_155_1345
*28500 FILLER_155_1353
*28501 FILLER_155_1361
*28502 FILLER_155_1369
*28318 FILLER_155_137
*28503 FILLER_155_1377
*28504 FILLER_155_1379
*28505 FILLER_155_1381
*28506 FILLER_155_1389
*28507 FILLER_155_1397
*28508 FILLER_155_1405
*28509 FILLER_155_1413
*28510 FILLER_155_1421
*28511 FILLER_155_1429
*28512 FILLER_155_1437
*28513 FILLER_155_1439
*28514 FILLER_155_1441
*28515 FILLER_155_1449
*28319 FILLER_155_145
*28516 FILLER_155_1457
*28517 FILLER_155_1465
*28518 FILLER_155_1473
*28519 FILLER_155_1481
*28520 FILLER_155_1489
*28521 FILLER_155_1497
*28522 FILLER_155_1499
*28523 FILLER_155_1501
*28524 FILLER_155_1509
*28525 FILLER_155_1517
*28526 FILLER_155_1525
*28320 FILLER_155_153
*28527 FILLER_155_1533
*28528 FILLER_155_1541
*28529 FILLER_155_1549
*28530 FILLER_155_1557
*28531 FILLER_155_1559
*28532 FILLER_155_1561
*28533 FILLER_155_1569
*28534 FILLER_155_1577
*28535 FILLER_155_1585
*28536 FILLER_155_1593
*28301 FILLER_155_16
*28537 FILLER_155_1601
*28538 FILLER_155_1609
*28321 FILLER_155_161
*28539 FILLER_155_1617
*28540 FILLER_155_1619
*28541 FILLER_155_1621
*28542 FILLER_155_1629
*28543 FILLER_155_1637
*28544 FILLER_155_1645
*28545 FILLER_155_1653
*28546 FILLER_155_1661
*28547 FILLER_155_1669
*28548 FILLER_155_1677
*28549 FILLER_155_1679
*28550 FILLER_155_1681
*28551 FILLER_155_1689
*28322 FILLER_155_169
*28552 FILLER_155_1697
*28553 FILLER_155_1705
*28554 FILLER_155_1713
*28555 FILLER_155_1721
*28556 FILLER_155_1729
*28557 FILLER_155_1737
*28558 FILLER_155_1739
*28559 FILLER_155_1741
*28560 FILLER_155_1749
*28561 FILLER_155_1757
*28562 FILLER_155_1765
*28323 FILLER_155_177
*28563 FILLER_155_1773
*28564 FILLER_155_1781
*28565 FILLER_155_1789
*28324 FILLER_155_179
*28566 FILLER_155_1797
*28567 FILLER_155_1799
*28568 FILLER_155_1801
*28569 FILLER_155_1809
*28325 FILLER_155_181
*28570 FILLER_155_1817
*28571 FILLER_155_1825
*28572 FILLER_155_1833
*28573 FILLER_155_1841
*28574 FILLER_155_1849
*28575 FILLER_155_1857
*28576 FILLER_155_1859
*28577 FILLER_155_1861
*28578 FILLER_155_1869
*28579 FILLER_155_1877
*28580 FILLER_155_1885
*28326 FILLER_155_189
*28581 FILLER_155_1893
*28582 FILLER_155_1901
*28583 FILLER_155_1909
*28584 FILLER_155_1917
*28585 FILLER_155_1919
*28586 FILLER_155_1921
*28587 FILLER_155_1929
*28588 FILLER_155_1937
*28589 FILLER_155_1945
*28590 FILLER_155_1953
*28591 FILLER_155_1961
*28592 FILLER_155_1969
*28327 FILLER_155_197
*28593 FILLER_155_1977
*28594 FILLER_155_1979
*28595 FILLER_155_1981
*28596 FILLER_155_1989
*28597 FILLER_155_1997
*28598 FILLER_155_2005
*28599 FILLER_155_2013
*28600 FILLER_155_2021
*28601 FILLER_155_2029
*28602 FILLER_155_2037
*28603 FILLER_155_2039
*28604 FILLER_155_2041
*28605 FILLER_155_2049
*28328 FILLER_155_205
*28606 FILLER_155_2057
*28607 FILLER_155_2065
*28608 FILLER_155_2073
*28609 FILLER_155_2081
*28610 FILLER_155_2089
*28611 FILLER_155_2097
*28612 FILLER_155_2099
*28613 FILLER_155_2101
*28614 FILLER_155_2109
*28615 FILLER_155_2117
*28616 FILLER_155_2125
*28617 FILLER_155_2129
*28329 FILLER_155_213
*28330 FILLER_155_221
*28331 FILLER_155_229
*28332 FILLER_155_237
*28333 FILLER_155_239
*28302 FILLER_155_24
*28334 FILLER_155_241
*28335 FILLER_155_249
*28336 FILLER_155_257
*28337 FILLER_155_265
*28338 FILLER_155_273
*28339 FILLER_155_281
*28340 FILLER_155_289
*28341 FILLER_155_297
*28342 FILLER_155_299
*28343 FILLER_155_301
*28344 FILLER_155_309
*28345 FILLER_155_317
*28303 FILLER_155_32
*28346 FILLER_155_325
*28347 FILLER_155_333
*28348 FILLER_155_341
*28349 FILLER_155_349
*28350 FILLER_155_357
*28351 FILLER_155_359
*28352 FILLER_155_361
*28353 FILLER_155_369
*28354 FILLER_155_377
*28355 FILLER_155_385
*28356 FILLER_155_393
*28304 FILLER_155_40
*28357 FILLER_155_401
*28358 FILLER_155_409
*28359 FILLER_155_417
*28360 FILLER_155_419
*28361 FILLER_155_421
*28362 FILLER_155_429
*28363 FILLER_155_437
*28364 FILLER_155_445
*28365 FILLER_155_453
*28366 FILLER_155_461
*28367 FILLER_155_469
*28368 FILLER_155_477
*28369 FILLER_155_479
*28305 FILLER_155_48
*28370 FILLER_155_481
*28371 FILLER_155_489
*28372 FILLER_155_497
*28373 FILLER_155_505
*28374 FILLER_155_513
*28375 FILLER_155_521
*28376 FILLER_155_529
*28377 FILLER_155_537
*28378 FILLER_155_539
*28379 FILLER_155_541
*28380 FILLER_155_549
*28381 FILLER_155_557
*28306 FILLER_155_56
*28382 FILLER_155_565
*28383 FILLER_155_573
*28384 FILLER_155_581
*28385 FILLER_155_589
*28386 FILLER_155_597
*28387 FILLER_155_599
*28388 FILLER_155_601
*28389 FILLER_155_609
*28307 FILLER_155_61
*28390 FILLER_155_617
*28391 FILLER_155_625
*28392 FILLER_155_633
*28393 FILLER_155_641
*28394 FILLER_155_649
*28395 FILLER_155_657
*28396 FILLER_155_659
*28397 FILLER_155_661
*28398 FILLER_155_669
*28399 FILLER_155_677
*28400 FILLER_155_685
*28308 FILLER_155_69
*28401 FILLER_155_693
*28402 FILLER_155_701
*28403 FILLER_155_709
*28404 FILLER_155_717
*28405 FILLER_155_719
*28406 FILLER_155_721
*28407 FILLER_155_729
*28408 FILLER_155_737
*28409 FILLER_155_745
*28410 FILLER_155_753
*28411 FILLER_155_761
*28412 FILLER_155_769
*28309 FILLER_155_77
*28413 FILLER_155_777
*28414 FILLER_155_779
*28415 FILLER_155_781
*28416 FILLER_155_789
*28417 FILLER_155_797
*28300 FILLER_155_8
*28418 FILLER_155_805
*28419 FILLER_155_813
*28420 FILLER_155_821
*28421 FILLER_155_829
*28422 FILLER_155_837
*28423 FILLER_155_839
*28424 FILLER_155_841
*28425 FILLER_155_849
*28310 FILLER_155_85
*28426 FILLER_155_857
*28427 FILLER_155_865
*28428 FILLER_155_873
*28429 FILLER_155_881
*28430 FILLER_155_889
*28431 FILLER_155_897
*28432 FILLER_155_899
*28433 FILLER_155_901
*28434 FILLER_155_909
*28435 FILLER_155_917
*28436 FILLER_155_925
*28311 FILLER_155_93
*28437 FILLER_155_933
*28438 FILLER_155_941
*28439 FILLER_155_949
*28440 FILLER_155_957
*28441 FILLER_155_959
*28442 FILLER_155_961
*28443 FILLER_155_969
*28444 FILLER_155_977
*28445 FILLER_155_985
*28446 FILLER_155_993
*28618 FILLER_156_0
*28769 FILLER_156_1007
*28770 FILLER_156_1015
*28771 FILLER_156_1023
*28772 FILLER_156_1031
*28773 FILLER_156_1039
*28774 FILLER_156_1047
*28775 FILLER_156_1049
*28776 FILLER_156_1051
*28777 FILLER_156_1059
*28778 FILLER_156_1067
*28634 FILLER_156_107
*28779 FILLER_156_1075
*28780 FILLER_156_1083
*28781 FILLER_156_1091
*28782 FILLER_156_1099
*28783 FILLER_156_1107
*28784 FILLER_156_1109
*28785 FILLER_156_1111
*28786 FILLER_156_1119
*28787 FILLER_156_1127
*28788 FILLER_156_1135
*28789 FILLER_156_1143
*28635 FILLER_156_115
*28790 FILLER_156_1151
*28791 FILLER_156_1159
*28792 FILLER_156_1167
*28793 FILLER_156_1169
*28794 FILLER_156_1171
*28795 FILLER_156_1179
*28796 FILLER_156_1187
*28797 FILLER_156_1195
*28798 FILLER_156_1203
*28799 FILLER_156_1211
*28800 FILLER_156_1219
*28801 FILLER_156_1227
*28802 FILLER_156_1229
*28636 FILLER_156_123
*28803 FILLER_156_1231
*28804 FILLER_156_1239
*28805 FILLER_156_1247
*28806 FILLER_156_1255
*28807 FILLER_156_1263
*28808 FILLER_156_1271
*28809 FILLER_156_1279
*28810 FILLER_156_1287
*28811 FILLER_156_1289
*28812 FILLER_156_1291
*28813 FILLER_156_1299
*28814 FILLER_156_1307
*28637 FILLER_156_131
*28815 FILLER_156_1315
*28816 FILLER_156_1323
*28817 FILLER_156_1331
*28818 FILLER_156_1339
*28819 FILLER_156_1347
*28820 FILLER_156_1349
*28821 FILLER_156_1351
*28822 FILLER_156_1359
*28823 FILLER_156_1367
*28824 FILLER_156_1375
*28825 FILLER_156_1383
*28638 FILLER_156_139
*28826 FILLER_156_1391
*28827 FILLER_156_1399
*28828 FILLER_156_1407
*28829 FILLER_156_1409
*28830 FILLER_156_1411
*28831 FILLER_156_1419
*28832 FILLER_156_1427
*28833 FILLER_156_1435
*28834 FILLER_156_1443
*28835 FILLER_156_1451
*28836 FILLER_156_1459
*28837 FILLER_156_1467
*28838 FILLER_156_1469
*28639 FILLER_156_147
*28839 FILLER_156_1471
*28840 FILLER_156_1479
*28841 FILLER_156_1487
*28640 FILLER_156_149
*28842 FILLER_156_1495
*28843 FILLER_156_1503
*28641 FILLER_156_151
*28844 FILLER_156_1511
*28845 FILLER_156_1519
*28846 FILLER_156_1527
*28847 FILLER_156_1529
*28848 FILLER_156_1531
*28849 FILLER_156_1539
*28850 FILLER_156_1547
*28851 FILLER_156_1555
*28852 FILLER_156_1563
*28853 FILLER_156_1571
*28854 FILLER_156_1579
*28855 FILLER_156_1587
*28856 FILLER_156_1589
*28642 FILLER_156_159
*28857 FILLER_156_1591
*28858 FILLER_156_1599
*28620 FILLER_156_16
*28859 FILLER_156_1607
*28860 FILLER_156_1615
*28861 FILLER_156_1623
*28862 FILLER_156_1631
*28863 FILLER_156_1639
*28864 FILLER_156_1647
*28865 FILLER_156_1649
*28866 FILLER_156_1651
*28867 FILLER_156_1659
*28868 FILLER_156_1667
*28643 FILLER_156_167
*28869 FILLER_156_1675
*28870 FILLER_156_1683
*28871 FILLER_156_1691
*28872 FILLER_156_1699
*28873 FILLER_156_1707
*28874 FILLER_156_1709
*28875 FILLER_156_1711
*28876 FILLER_156_1719
*28877 FILLER_156_1727
*28878 FILLER_156_1735
*28879 FILLER_156_1743
*28644 FILLER_156_175
*28880 FILLER_156_1751
*28881 FILLER_156_1759
*28882 FILLER_156_1767
*28883 FILLER_156_1769
*28884 FILLER_156_1771
*28885 FILLER_156_1779
*28886 FILLER_156_1787
*28887 FILLER_156_1795
*28888 FILLER_156_1803
*28889 FILLER_156_1811
*28890 FILLER_156_1819
*28891 FILLER_156_1827
*28892 FILLER_156_1829
*28645 FILLER_156_183
*28893 FILLER_156_1831
*28894 FILLER_156_1839
*28895 FILLER_156_1847
*28896 FILLER_156_1855
*28897 FILLER_156_1863
*28898 FILLER_156_1871
*28899 FILLER_156_1879
*28900 FILLER_156_1887
*28901 FILLER_156_1889
*28902 FILLER_156_1891
*28903 FILLER_156_1899
*28904 FILLER_156_1907
*28646 FILLER_156_191
*28905 FILLER_156_1915
*28906 FILLER_156_1923
*28907 FILLER_156_1931
*28908 FILLER_156_1939
*28909 FILLER_156_1947
*28910 FILLER_156_1949
*28911 FILLER_156_1951
*28912 FILLER_156_1959
*28913 FILLER_156_1967
*28914 FILLER_156_1975
*28915 FILLER_156_1983
*28647 FILLER_156_199
*28916 FILLER_156_1991
*28917 FILLER_156_1999
*28918 FILLER_156_2007
*28919 FILLER_156_2009
*28920 FILLER_156_2011
*28921 FILLER_156_2019
*28922 FILLER_156_2027
*28923 FILLER_156_2035
*28924 FILLER_156_2043
*28925 FILLER_156_2051
*28926 FILLER_156_2059
*28927 FILLER_156_2067
*28928 FILLER_156_2069
*28648 FILLER_156_207
*28929 FILLER_156_2071
*28930 FILLER_156_2079
*28931 FILLER_156_2087
*28649 FILLER_156_209
*28932 FILLER_156_2095
*28933 FILLER_156_2103
*28650 FILLER_156_211
*28934 FILLER_156_2111
*28935 FILLER_156_2119
*28936 FILLER_156_2127
*28937 FILLER_156_2129
*28651 FILLER_156_219
*28652 FILLER_156_227
*28653 FILLER_156_235
*28621 FILLER_156_24
*28654 FILLER_156_243
*28655 FILLER_156_251
*28656 FILLER_156_259
*28657 FILLER_156_267
*28658 FILLER_156_269
*28659 FILLER_156_271
*28660 FILLER_156_279
*28622 FILLER_156_28
*28661 FILLER_156_287
*28662 FILLER_156_295
*28663 FILLER_156_303
*28623 FILLER_156_31
*28664 FILLER_156_311
*28665 FILLER_156_319
*28666 FILLER_156_327
*28667 FILLER_156_329
*28668 FILLER_156_331
*28669 FILLER_156_339
*28670 FILLER_156_347
*28671 FILLER_156_355
*28672 FILLER_156_363
*28673 FILLER_156_371
*28674 FILLER_156_379
*28675 FILLER_156_387
*28676 FILLER_156_389
*28624 FILLER_156_39
*28677 FILLER_156_391
*28678 FILLER_156_399
*28679 FILLER_156_407
*28680 FILLER_156_415
*28681 FILLER_156_423
*28682 FILLER_156_431
*28683 FILLER_156_439
*28684 FILLER_156_447
*28685 FILLER_156_449
*28686 FILLER_156_451
*28687 FILLER_156_459
*28688 FILLER_156_467
*28625 FILLER_156_47
*28689 FILLER_156_475
*28690 FILLER_156_483
*28691 FILLER_156_491
*28692 FILLER_156_499
*28693 FILLER_156_507
*28694 FILLER_156_509
*28695 FILLER_156_511
*28696 FILLER_156_519
*28697 FILLER_156_527
*28698 FILLER_156_535
*28699 FILLER_156_543
*28626 FILLER_156_55
*28700 FILLER_156_551
*28701 FILLER_156_559
*28702 FILLER_156_567
*28703 FILLER_156_569
*28704 FILLER_156_571
*28705 FILLER_156_579
*28706 FILLER_156_587
*28707 FILLER_156_595
*28708 FILLER_156_603
*28709 FILLER_156_611
*28710 FILLER_156_619
*28711 FILLER_156_627
*28712 FILLER_156_629
*28627 FILLER_156_63
*28713 FILLER_156_631
*28714 FILLER_156_639
*28715 FILLER_156_647
*28716 FILLER_156_655
*28717 FILLER_156_663
*28718 FILLER_156_671
*28719 FILLER_156_679
*28720 FILLER_156_687
*28721 FILLER_156_689
*28722 FILLER_156_691
*28723 FILLER_156_699
*28724 FILLER_156_707
*28628 FILLER_156_71
*28725 FILLER_156_715
*28726 FILLER_156_723
*28727 FILLER_156_731
*28728 FILLER_156_739
*28729 FILLER_156_747
*28730 FILLER_156_749
*28731 FILLER_156_751
*28732 FILLER_156_759
*28733 FILLER_156_767
*28734 FILLER_156_775
*28735 FILLER_156_783
*28629 FILLER_156_79
*28736 FILLER_156_791
*28737 FILLER_156_799
*28619 FILLER_156_8
*28738 FILLER_156_807
*28739 FILLER_156_809
*28740 FILLER_156_811
*28741 FILLER_156_819
*28742 FILLER_156_827
*28743 FILLER_156_835
*28744 FILLER_156_843
*28745 FILLER_156_851
*28746 FILLER_156_859
*28747 FILLER_156_867
*28748 FILLER_156_869
*28630 FILLER_156_87
*28749 FILLER_156_871
*28750 FILLER_156_879
*28751 FILLER_156_887
*28631 FILLER_156_89
*28752 FILLER_156_895
*28753 FILLER_156_903
*28632 FILLER_156_91
*28754 FILLER_156_911
*28755 FILLER_156_919
*28756 FILLER_156_927
*28757 FILLER_156_929
*28758 FILLER_156_931
*28759 FILLER_156_939
*28760 FILLER_156_947
*28761 FILLER_156_955
*28762 FILLER_156_963
*28763 FILLER_156_971
*28764 FILLER_156_979
*28765 FILLER_156_987
*28766 FILLER_156_989
*28633 FILLER_156_99
*28767 FILLER_156_991
*28768 FILLER_156_999
*28938 FILLER_157_0
*29086 FILLER_157_1001
*29087 FILLER_157_1009
*28951 FILLER_157_101
*29088 FILLER_157_1017
*29089 FILLER_157_1019
*29090 FILLER_157_1021
*29091 FILLER_157_1029
*29092 FILLER_157_1037
*29093 FILLER_157_1045
*29094 FILLER_157_1053
*29095 FILLER_157_1061
*29096 FILLER_157_1069
*29097 FILLER_157_1077
*29098 FILLER_157_1079
*29099 FILLER_157_1081
*29100 FILLER_157_1089
*28952 FILLER_157_109
*29101 FILLER_157_1097
*29102 FILLER_157_1105
*29103 FILLER_157_1113
*29104 FILLER_157_1121
*29105 FILLER_157_1129
*29106 FILLER_157_1137
*29107 FILLER_157_1139
*29108 FILLER_157_1141
*29109 FILLER_157_1149
*29110 FILLER_157_1157
*29111 FILLER_157_1165
*28953 FILLER_157_117
*29112 FILLER_157_1173
*29113 FILLER_157_1181
*29114 FILLER_157_1189
*28954 FILLER_157_119
*29115 FILLER_157_1197
*29116 FILLER_157_1199
*29117 FILLER_157_1201
*29118 FILLER_157_1209
*28955 FILLER_157_121
*29119 FILLER_157_1217
*29120 FILLER_157_1225
*29121 FILLER_157_1233
*29122 FILLER_157_1241
*29123 FILLER_157_1249
*29124 FILLER_157_1257
*29125 FILLER_157_1259
*29126 FILLER_157_1261
*29127 FILLER_157_1269
*29128 FILLER_157_1277
*29129 FILLER_157_1285
*28956 FILLER_157_129
*29130 FILLER_157_1293
*29131 FILLER_157_1301
*29132 FILLER_157_1309
*29133 FILLER_157_1317
*29134 FILLER_157_1319
*29135 FILLER_157_1321
*29136 FILLER_157_1329
*29137 FILLER_157_1337
*29138 FILLER_157_1345
*29139 FILLER_157_1353
*29140 FILLER_157_1361
*29141 FILLER_157_1369
*28957 FILLER_157_137
*29142 FILLER_157_1377
*29143 FILLER_157_1379
*29144 FILLER_157_1381
*29145 FILLER_157_1389
*29146 FILLER_157_1397
*29147 FILLER_157_1405
*29148 FILLER_157_1413
*29149 FILLER_157_1421
*29150 FILLER_157_1429
*29151 FILLER_157_1437
*29152 FILLER_157_1439
*29153 FILLER_157_1441
*29154 FILLER_157_1449
*28958 FILLER_157_145
*29155 FILLER_157_1457
*29156 FILLER_157_1465
*29157 FILLER_157_1473
*29158 FILLER_157_1481
*29159 FILLER_157_1489
*29160 FILLER_157_1497
*29161 FILLER_157_1499
*29162 FILLER_157_1501
*29163 FILLER_157_1509
*29164 FILLER_157_1517
*29165 FILLER_157_1525
*28959 FILLER_157_153
*29166 FILLER_157_1533
*29167 FILLER_157_1541
*29168 FILLER_157_1549
*29169 FILLER_157_1557
*29170 FILLER_157_1559
*29171 FILLER_157_1561
*29172 FILLER_157_1569
*29173 FILLER_157_1577
*29174 FILLER_157_1585
*29175 FILLER_157_1593
*28940 FILLER_157_16
*29176 FILLER_157_1601
*29177 FILLER_157_1609
*28960 FILLER_157_161
*29178 FILLER_157_1617
*29179 FILLER_157_1619
*29180 FILLER_157_1621
*29181 FILLER_157_1629
*29182 FILLER_157_1637
*29183 FILLER_157_1645
*29184 FILLER_157_1653
*29185 FILLER_157_1661
*29186 FILLER_157_1669
*29187 FILLER_157_1677
*29188 FILLER_157_1679
*29189 FILLER_157_1681
*29190 FILLER_157_1689
*28961 FILLER_157_169
*29191 FILLER_157_1697
*29192 FILLER_157_1705
*29193 FILLER_157_1713
*29194 FILLER_157_1721
*29195 FILLER_157_1729
*29196 FILLER_157_1737
*29197 FILLER_157_1739
*29198 FILLER_157_1741
*29199 FILLER_157_1749
*29200 FILLER_157_1757
*29201 FILLER_157_1765
*28962 FILLER_157_177
*29202 FILLER_157_1773
*29203 FILLER_157_1781
*29204 FILLER_157_1789
*28963 FILLER_157_179
*29205 FILLER_157_1797
*29206 FILLER_157_1799
*29207 FILLER_157_1801
*29208 FILLER_157_1809
*28964 FILLER_157_181
*29209 FILLER_157_1817
*29210 FILLER_157_1825
*29211 FILLER_157_1833
*29212 FILLER_157_1841
*29213 FILLER_157_1849
*29214 FILLER_157_1857
*29215 FILLER_157_1859
*29216 FILLER_157_1861
*29217 FILLER_157_1869
*29218 FILLER_157_1877
*29219 FILLER_157_1885
*28965 FILLER_157_189
*29220 FILLER_157_1893
*29221 FILLER_157_1901
*29222 FILLER_157_1909
*29223 FILLER_157_1917
*29224 FILLER_157_1919
*29225 FILLER_157_1921
*29226 FILLER_157_1929
*29227 FILLER_157_1937
*29228 FILLER_157_1945
*29229 FILLER_157_1953
*29230 FILLER_157_1961
*29231 FILLER_157_1969
*28966 FILLER_157_197
*29232 FILLER_157_1977
*29233 FILLER_157_1979
*29234 FILLER_157_1981
*29235 FILLER_157_1989
*29236 FILLER_157_1997
*29237 FILLER_157_2005
*29238 FILLER_157_2013
*29239 FILLER_157_2021
*29240 FILLER_157_2029
*29241 FILLER_157_2037
*29242 FILLER_157_2039
*29243 FILLER_157_2041
*29244 FILLER_157_2049
*28967 FILLER_157_205
*29245 FILLER_157_2057
*29246 FILLER_157_2065
*29247 FILLER_157_2073
*29248 FILLER_157_2081
*29249 FILLER_157_2089
*29250 FILLER_157_2097
*29251 FILLER_157_2099
*29252 FILLER_157_2101
*29253 FILLER_157_2109
*29254 FILLER_157_2117
*29255 FILLER_157_2125
*29256 FILLER_157_2129
*28968 FILLER_157_213
*28969 FILLER_157_221
*28970 FILLER_157_229
*28971 FILLER_157_237
*28972 FILLER_157_239
*28941 FILLER_157_24
*28973 FILLER_157_241
*28974 FILLER_157_249
*28975 FILLER_157_257
*28976 FILLER_157_265
*28977 FILLER_157_273
*28978 FILLER_157_281
*28979 FILLER_157_289
*28980 FILLER_157_297
*28981 FILLER_157_299
*28982 FILLER_157_301
*28983 FILLER_157_309
*28984 FILLER_157_317
*28942 FILLER_157_32
*28985 FILLER_157_325
*28986 FILLER_157_333
*28987 FILLER_157_341
*28988 FILLER_157_349
*28989 FILLER_157_357
*28990 FILLER_157_359
*28991 FILLER_157_361
*28992 FILLER_157_369
*28993 FILLER_157_377
*28994 FILLER_157_385
*28995 FILLER_157_393
*28943 FILLER_157_40
*28996 FILLER_157_401
*28997 FILLER_157_409
*28998 FILLER_157_417
*28999 FILLER_157_419
*29000 FILLER_157_421
*29001 FILLER_157_429
*29002 FILLER_157_437
*29003 FILLER_157_445
*29004 FILLER_157_453
*29005 FILLER_157_461
*29006 FILLER_157_469
*29007 FILLER_157_477
*29008 FILLER_157_479
*28944 FILLER_157_48
*29009 FILLER_157_481
*29010 FILLER_157_489
*29011 FILLER_157_497
*29012 FILLER_157_505
*29013 FILLER_157_513
*29014 FILLER_157_521
*29015 FILLER_157_529
*29016 FILLER_157_537
*29017 FILLER_157_539
*29018 FILLER_157_541
*29019 FILLER_157_549
*29020 FILLER_157_557
*28945 FILLER_157_56
*29021 FILLER_157_565
*29022 FILLER_157_573
*29023 FILLER_157_581
*29024 FILLER_157_589
*29025 FILLER_157_597
*29026 FILLER_157_599
*29027 FILLER_157_601
*29028 FILLER_157_609
*28946 FILLER_157_61
*29029 FILLER_157_617
*29030 FILLER_157_625
*29031 FILLER_157_633
*29032 FILLER_157_641
*29033 FILLER_157_649
*29034 FILLER_157_657
*29035 FILLER_157_659
*29036 FILLER_157_661
*29037 FILLER_157_669
*29038 FILLER_157_677
*29039 FILLER_157_685
*28947 FILLER_157_69
*29040 FILLER_157_693
*29041 FILLER_157_701
*29042 FILLER_157_709
*29043 FILLER_157_717
*29044 FILLER_157_719
*29045 FILLER_157_721
*29046 FILLER_157_729
*29047 FILLER_157_737
*29048 FILLER_157_745
*29049 FILLER_157_753
*29050 FILLER_157_761
*29051 FILLER_157_769
*28948 FILLER_157_77
*29052 FILLER_157_777
*29053 FILLER_157_779
*29054 FILLER_157_781
*29055 FILLER_157_789
*29056 FILLER_157_797
*28939 FILLER_157_8
*29057 FILLER_157_805
*29058 FILLER_157_813
*29059 FILLER_157_821
*29060 FILLER_157_829
*29061 FILLER_157_837
*29062 FILLER_157_839
*29063 FILLER_157_841
*29064 FILLER_157_849
*28949 FILLER_157_85
*29065 FILLER_157_857
*29066 FILLER_157_865
*29067 FILLER_157_873
*29068 FILLER_157_881
*29069 FILLER_157_889
*29070 FILLER_157_897
*29071 FILLER_157_899
*29072 FILLER_157_901
*29073 FILLER_157_909
*29074 FILLER_157_917
*29075 FILLER_157_925
*28950 FILLER_157_93
*29076 FILLER_157_933
*29077 FILLER_157_941
*29078 FILLER_157_949
*29079 FILLER_157_957
*29080 FILLER_157_959
*29081 FILLER_157_961
*29082 FILLER_157_969
*29083 FILLER_157_977
*29084 FILLER_157_985
*29085 FILLER_157_993
*29257 FILLER_158_0
*29408 FILLER_158_1007
*29409 FILLER_158_1015
*29410 FILLER_158_1023
*29411 FILLER_158_1031
*29412 FILLER_158_1039
*29413 FILLER_158_1047
*29414 FILLER_158_1049
*29415 FILLER_158_1051
*29416 FILLER_158_1059
*29417 FILLER_158_1067
*29273 FILLER_158_107
*29418 FILLER_158_1075
*29419 FILLER_158_1083
*29420 FILLER_158_1091
*29421 FILLER_158_1099
*29422 FILLER_158_1107
*29423 FILLER_158_1109
*29424 FILLER_158_1111
*29425 FILLER_158_1119
*29426 FILLER_158_1127
*29427 FILLER_158_1135
*29428 FILLER_158_1143
*29274 FILLER_158_115
*29429 FILLER_158_1151
*29430 FILLER_158_1159
*29431 FILLER_158_1167
*29432 FILLER_158_1169
*29433 FILLER_158_1171
*29434 FILLER_158_1179
*29435 FILLER_158_1187
*29436 FILLER_158_1195
*29437 FILLER_158_1203
*29438 FILLER_158_1211
*29439 FILLER_158_1219
*29440 FILLER_158_1227
*29441 FILLER_158_1229
*29275 FILLER_158_123
*29442 FILLER_158_1231
*29443 FILLER_158_1239
*29444 FILLER_158_1247
*29445 FILLER_158_1255
*29446 FILLER_158_1263
*29447 FILLER_158_1271
*29448 FILLER_158_1279
*29449 FILLER_158_1287
*29450 FILLER_158_1289
*29451 FILLER_158_1291
*29452 FILLER_158_1299
*29453 FILLER_158_1307
*29276 FILLER_158_131
*29454 FILLER_158_1315
*29455 FILLER_158_1323
*29456 FILLER_158_1331
*29457 FILLER_158_1339
*29458 FILLER_158_1347
*29459 FILLER_158_1349
*29460 FILLER_158_1351
*29461 FILLER_158_1359
*29462 FILLER_158_1367
*29463 FILLER_158_1375
*29464 FILLER_158_1383
*29277 FILLER_158_139
*29465 FILLER_158_1391
*29466 FILLER_158_1399
*29467 FILLER_158_1407
*29468 FILLER_158_1409
*29469 FILLER_158_1411
*29470 FILLER_158_1419
*29471 FILLER_158_1427
*29472 FILLER_158_1435
*29473 FILLER_158_1443
*29474 FILLER_158_1451
*29475 FILLER_158_1459
*29476 FILLER_158_1467
*29477 FILLER_158_1469
*29278 FILLER_158_147
*29478 FILLER_158_1471
*29479 FILLER_158_1479
*29480 FILLER_158_1487
*29279 FILLER_158_149
*29481 FILLER_158_1495
*29482 FILLER_158_1503
*29280 FILLER_158_151
*29483 FILLER_158_1511
*29484 FILLER_158_1519
*29485 FILLER_158_1527
*29486 FILLER_158_1529
*29487 FILLER_158_1531
*29488 FILLER_158_1539
*29489 FILLER_158_1547
*29490 FILLER_158_1555
*29491 FILLER_158_1563
*29492 FILLER_158_1571
*29493 FILLER_158_1579
*29494 FILLER_158_1587
*29495 FILLER_158_1589
*29281 FILLER_158_159
*29496 FILLER_158_1591
*29497 FILLER_158_1599
*29259 FILLER_158_16
*29498 FILLER_158_1607
*29499 FILLER_158_1615
*29500 FILLER_158_1623
*29501 FILLER_158_1631
*29502 FILLER_158_1639
*29503 FILLER_158_1647
*29504 FILLER_158_1649
*29505 FILLER_158_1651
*29506 FILLER_158_1659
*29507 FILLER_158_1667
*29282 FILLER_158_167
*29508 FILLER_158_1675
*29509 FILLER_158_1683
*29510 FILLER_158_1691
*29511 FILLER_158_1699
*29512 FILLER_158_1707
*29513 FILLER_158_1709
*29514 FILLER_158_1711
*29515 FILLER_158_1719
*29516 FILLER_158_1727
*29517 FILLER_158_1735
*29518 FILLER_158_1743
*29283 FILLER_158_175
*29519 FILLER_158_1751
*29520 FILLER_158_1759
*29521 FILLER_158_1767
*29522 FILLER_158_1769
*29523 FILLER_158_1771
*29524 FILLER_158_1779
*29525 FILLER_158_1787
*29526 FILLER_158_1795
*29527 FILLER_158_1803
*29528 FILLER_158_1811
*29529 FILLER_158_1819
*29530 FILLER_158_1827
*29531 FILLER_158_1829
*29284 FILLER_158_183
*29532 FILLER_158_1831
*29533 FILLER_158_1839
*29534 FILLER_158_1847
*29535 FILLER_158_1855
*29536 FILLER_158_1863
*29537 FILLER_158_1871
*29538 FILLER_158_1879
*29539 FILLER_158_1887
*29540 FILLER_158_1889
*29541 FILLER_158_1891
*29542 FILLER_158_1899
*29543 FILLER_158_1907
*29285 FILLER_158_191
*29544 FILLER_158_1915
*29545 FILLER_158_1923
*29546 FILLER_158_1931
*29547 FILLER_158_1939
*29548 FILLER_158_1947
*29549 FILLER_158_1949
*29550 FILLER_158_1951
*29551 FILLER_158_1959
*29552 FILLER_158_1967
*29553 FILLER_158_1975
*29554 FILLER_158_1983
*29286 FILLER_158_199
*29555 FILLER_158_1991
*29556 FILLER_158_1999
*29557 FILLER_158_2007
*29558 FILLER_158_2009
*29559 FILLER_158_2011
*29560 FILLER_158_2019
*29561 FILLER_158_2027
*29562 FILLER_158_2035
*29563 FILLER_158_2043
*29564 FILLER_158_2051
*29565 FILLER_158_2059
*29566 FILLER_158_2067
*29567 FILLER_158_2069
*29287 FILLER_158_207
*29568 FILLER_158_2071
*29569 FILLER_158_2079
*29570 FILLER_158_2087
*29288 FILLER_158_209
*29571 FILLER_158_2095
*29572 FILLER_158_2103
*29289 FILLER_158_211
*29573 FILLER_158_2111
*29574 FILLER_158_2119
*29575 FILLER_158_2127
*29576 FILLER_158_2129
*29290 FILLER_158_219
*29291 FILLER_158_227
*29292 FILLER_158_235
*29260 FILLER_158_24
*29293 FILLER_158_243
*29294 FILLER_158_251
*29295 FILLER_158_259
*29296 FILLER_158_267
*29297 FILLER_158_269
*29298 FILLER_158_271
*29299 FILLER_158_279
*29261 FILLER_158_28
*29300 FILLER_158_287
*29301 FILLER_158_295
*29302 FILLER_158_303
*29262 FILLER_158_31
*29303 FILLER_158_311
*29304 FILLER_158_319
*29305 FILLER_158_327
*29306 FILLER_158_329
*29307 FILLER_158_331
*29308 FILLER_158_339
*29309 FILLER_158_347
*29310 FILLER_158_355
*29311 FILLER_158_363
*29312 FILLER_158_371
*29313 FILLER_158_379
*29314 FILLER_158_387
*29315 FILLER_158_389
*29263 FILLER_158_39
*29316 FILLER_158_391
*29317 FILLER_158_399
*29318 FILLER_158_407
*29319 FILLER_158_415
*29320 FILLER_158_423
*29321 FILLER_158_431
*29322 FILLER_158_439
*29323 FILLER_158_447
*29324 FILLER_158_449
*29325 FILLER_158_451
*29326 FILLER_158_459
*29327 FILLER_158_467
*29264 FILLER_158_47
*29328 FILLER_158_475
*29329 FILLER_158_483
*29330 FILLER_158_491
*29331 FILLER_158_499
*29332 FILLER_158_507
*29333 FILLER_158_509
*29334 FILLER_158_511
*29335 FILLER_158_519
*29336 FILLER_158_527
*29337 FILLER_158_535
*29338 FILLER_158_543
*29265 FILLER_158_55
*29339 FILLER_158_551
*29340 FILLER_158_559
*29341 FILLER_158_567
*29342 FILLER_158_569
*29343 FILLER_158_571
*29344 FILLER_158_579
*29345 FILLER_158_587
*29346 FILLER_158_595
*29347 FILLER_158_603
*29348 FILLER_158_611
*29349 FILLER_158_619
*29350 FILLER_158_627
*29351 FILLER_158_629
*29266 FILLER_158_63
*29352 FILLER_158_631
*29353 FILLER_158_639
*29354 FILLER_158_647
*29355 FILLER_158_655
*29356 FILLER_158_663
*29357 FILLER_158_671
*29358 FILLER_158_679
*29359 FILLER_158_687
*29360 FILLER_158_689
*29361 FILLER_158_691
*29362 FILLER_158_699
*29363 FILLER_158_707
*29267 FILLER_158_71
*29364 FILLER_158_715
*29365 FILLER_158_723
*29366 FILLER_158_731
*29367 FILLER_158_739
*29368 FILLER_158_747
*29369 FILLER_158_749
*29370 FILLER_158_751
*29371 FILLER_158_759
*29372 FILLER_158_767
*29373 FILLER_158_775
*29374 FILLER_158_783
*29268 FILLER_158_79
*29375 FILLER_158_791
*29376 FILLER_158_799
*29258 FILLER_158_8
*29377 FILLER_158_807
*29378 FILLER_158_809
*29379 FILLER_158_811
*29380 FILLER_158_819
*29381 FILLER_158_827
*29382 FILLER_158_835
*29383 FILLER_158_843
*29384 FILLER_158_851
*29385 FILLER_158_859
*29386 FILLER_158_867
*29387 FILLER_158_869
*29269 FILLER_158_87
*29388 FILLER_158_871
*29389 FILLER_158_879
*29390 FILLER_158_887
*29270 FILLER_158_89
*29391 FILLER_158_895
*29392 FILLER_158_903
*29271 FILLER_158_91
*29393 FILLER_158_911
*29394 FILLER_158_919
*29395 FILLER_158_927
*29396 FILLER_158_929
*29397 FILLER_158_931
*29398 FILLER_158_939
*29399 FILLER_158_947
*29400 FILLER_158_955
*29401 FILLER_158_963
*29402 FILLER_158_971
*29403 FILLER_158_979
*29404 FILLER_158_987
*29405 FILLER_158_989
*29272 FILLER_158_99
*29406 FILLER_158_991
*29407 FILLER_158_999
*29577 FILLER_159_0
*29725 FILLER_159_1001
*29726 FILLER_159_1009
*29590 FILLER_159_101
*29727 FILLER_159_1017
*29728 FILLER_159_1019
*29729 FILLER_159_1021
*29730 FILLER_159_1029
*29731 FILLER_159_1037
*29732 FILLER_159_1045
*29733 FILLER_159_1053
*29734 FILLER_159_1061
*29735 FILLER_159_1069
*29736 FILLER_159_1077
*29737 FILLER_159_1079
*29738 FILLER_159_1081
*29739 FILLER_159_1089
*29591 FILLER_159_109
*29740 FILLER_159_1097
*29741 FILLER_159_1105
*29742 FILLER_159_1113
*29743 FILLER_159_1121
*29744 FILLER_159_1129
*29745 FILLER_159_1137
*29746 FILLER_159_1139
*29747 FILLER_159_1141
*29748 FILLER_159_1149
*29749 FILLER_159_1157
*29750 FILLER_159_1165
*29592 FILLER_159_117
*29751 FILLER_159_1173
*29752 FILLER_159_1181
*29753 FILLER_159_1189
*29593 FILLER_159_119
*29754 FILLER_159_1197
*29755 FILLER_159_1199
*29756 FILLER_159_1201
*29757 FILLER_159_1209
*29594 FILLER_159_121
*29758 FILLER_159_1217
*29759 FILLER_159_1225
*29760 FILLER_159_1233
*29761 FILLER_159_1241
*29762 FILLER_159_1249
*29763 FILLER_159_1257
*29764 FILLER_159_1259
*29765 FILLER_159_1261
*29766 FILLER_159_1269
*29767 FILLER_159_1277
*29768 FILLER_159_1285
*29595 FILLER_159_129
*29769 FILLER_159_1293
*29770 FILLER_159_1301
*29771 FILLER_159_1309
*29772 FILLER_159_1317
*29773 FILLER_159_1319
*29774 FILLER_159_1321
*29775 FILLER_159_1329
*29776 FILLER_159_1337
*29777 FILLER_159_1345
*29778 FILLER_159_1353
*29779 FILLER_159_1361
*29780 FILLER_159_1369
*29596 FILLER_159_137
*29781 FILLER_159_1377
*29782 FILLER_159_1379
*29783 FILLER_159_1381
*29784 FILLER_159_1389
*29785 FILLER_159_1397
*29786 FILLER_159_1405
*29787 FILLER_159_1413
*29788 FILLER_159_1421
*29789 FILLER_159_1429
*29790 FILLER_159_1437
*29791 FILLER_159_1439
*29792 FILLER_159_1441
*29793 FILLER_159_1449
*29597 FILLER_159_145
*29794 FILLER_159_1457
*29795 FILLER_159_1465
*29796 FILLER_159_1473
*29797 FILLER_159_1481
*29798 FILLER_159_1489
*29799 FILLER_159_1497
*29800 FILLER_159_1499
*29801 FILLER_159_1501
*29802 FILLER_159_1509
*29803 FILLER_159_1517
*29804 FILLER_159_1525
*29598 FILLER_159_153
*29805 FILLER_159_1533
*29806 FILLER_159_1541
*29807 FILLER_159_1549
*29808 FILLER_159_1557
*29809 FILLER_159_1559
*29810 FILLER_159_1561
*29811 FILLER_159_1569
*29812 FILLER_159_1577
*29813 FILLER_159_1585
*29814 FILLER_159_1593
*29579 FILLER_159_16
*29815 FILLER_159_1601
*29816 FILLER_159_1609
*29599 FILLER_159_161
*29817 FILLER_159_1617
*29818 FILLER_159_1619
*29819 FILLER_159_1621
*29820 FILLER_159_1629
*29821 FILLER_159_1637
*29822 FILLER_159_1645
*29823 FILLER_159_1653
*29824 FILLER_159_1661
*29825 FILLER_159_1669
*29826 FILLER_159_1677
*29827 FILLER_159_1679
*29828 FILLER_159_1681
*29829 FILLER_159_1689
*29600 FILLER_159_169
*29830 FILLER_159_1697
*29831 FILLER_159_1705
*29832 FILLER_159_1713
*29833 FILLER_159_1721
*29834 FILLER_159_1729
*29835 FILLER_159_1737
*29836 FILLER_159_1739
*29837 FILLER_159_1741
*29838 FILLER_159_1749
*29839 FILLER_159_1757
*29840 FILLER_159_1765
*29601 FILLER_159_177
*29841 FILLER_159_1773
*29842 FILLER_159_1781
*29843 FILLER_159_1789
*29602 FILLER_159_179
*29844 FILLER_159_1797
*29845 FILLER_159_1799
*29846 FILLER_159_1801
*29847 FILLER_159_1809
*29603 FILLER_159_181
*29848 FILLER_159_1817
*29849 FILLER_159_1825
*29850 FILLER_159_1833
*29851 FILLER_159_1841
*29852 FILLER_159_1849
*29853 FILLER_159_1857
*29854 FILLER_159_1859
*29855 FILLER_159_1861
*29856 FILLER_159_1869
*29857 FILLER_159_1877
*29858 FILLER_159_1885
*29604 FILLER_159_189
*29859 FILLER_159_1893
*29860 FILLER_159_1901
*29861 FILLER_159_1909
*29862 FILLER_159_1917
*29863 FILLER_159_1919
*29864 FILLER_159_1921
*29865 FILLER_159_1929
*29866 FILLER_159_1937
*29867 FILLER_159_1945
*29868 FILLER_159_1953
*29869 FILLER_159_1961
*29870 FILLER_159_1969
*29605 FILLER_159_197
*29871 FILLER_159_1977
*29872 FILLER_159_1979
*29873 FILLER_159_1981
*29874 FILLER_159_1989
*29875 FILLER_159_1997
*29876 FILLER_159_2005
*29877 FILLER_159_2013
*29878 FILLER_159_2021
*29879 FILLER_159_2029
*29880 FILLER_159_2037
*29881 FILLER_159_2039
*29882 FILLER_159_2041
*29883 FILLER_159_2049
*29606 FILLER_159_205
*29884 FILLER_159_2057
*29885 FILLER_159_2065
*29886 FILLER_159_2073
*29887 FILLER_159_2081
*29888 FILLER_159_2089
*29889 FILLER_159_2097
*29890 FILLER_159_2099
*29891 FILLER_159_2101
*29892 FILLER_159_2109
*29893 FILLER_159_2117
*29894 FILLER_159_2125
*29895 FILLER_159_2129
*29607 FILLER_159_213
*29608 FILLER_159_221
*29609 FILLER_159_229
*29610 FILLER_159_237
*29611 FILLER_159_239
*29580 FILLER_159_24
*29612 FILLER_159_241
*29613 FILLER_159_249
*29614 FILLER_159_257
*29615 FILLER_159_265
*29616 FILLER_159_273
*29617 FILLER_159_281
*29618 FILLER_159_289
*29619 FILLER_159_297
*29620 FILLER_159_299
*29621 FILLER_159_301
*29622 FILLER_159_309
*29623 FILLER_159_317
*29581 FILLER_159_32
*29624 FILLER_159_325
*29625 FILLER_159_333
*29626 FILLER_159_341
*29627 FILLER_159_349
*29628 FILLER_159_357
*29629 FILLER_159_359
*29630 FILLER_159_361
*29631 FILLER_159_369
*29632 FILLER_159_377
*29633 FILLER_159_385
*29634 FILLER_159_393
*29582 FILLER_159_40
*29635 FILLER_159_401
*29636 FILLER_159_409
*29637 FILLER_159_417
*29638 FILLER_159_419
*29639 FILLER_159_421
*29640 FILLER_159_429
*29641 FILLER_159_437
*29642 FILLER_159_445
*29643 FILLER_159_453
*29644 FILLER_159_461
*29645 FILLER_159_469
*29646 FILLER_159_477
*29647 FILLER_159_479
*29583 FILLER_159_48
*29648 FILLER_159_481
*29649 FILLER_159_489
*29650 FILLER_159_497
*29651 FILLER_159_505
*29652 FILLER_159_513
*29653 FILLER_159_521
*29654 FILLER_159_529
*29655 FILLER_159_537
*29656 FILLER_159_539
*29657 FILLER_159_541
*29658 FILLER_159_549
*29659 FILLER_159_557
*29584 FILLER_159_56
*29660 FILLER_159_565
*29661 FILLER_159_573
*29662 FILLER_159_581
*29663 FILLER_159_589
*29664 FILLER_159_597
*29665 FILLER_159_599
*29666 FILLER_159_601
*29667 FILLER_159_609
*29585 FILLER_159_61
*29668 FILLER_159_617
*29669 FILLER_159_625
*29670 FILLER_159_633
*29671 FILLER_159_641
*29672 FILLER_159_649
*29673 FILLER_159_657
*29674 FILLER_159_659
*29675 FILLER_159_661
*29676 FILLER_159_669
*29677 FILLER_159_677
*29678 FILLER_159_685
*29586 FILLER_159_69
*29679 FILLER_159_693
*29680 FILLER_159_701
*29681 FILLER_159_709
*29682 FILLER_159_717
*29683 FILLER_159_719
*29684 FILLER_159_721
*29685 FILLER_159_729
*29686 FILLER_159_737
*29687 FILLER_159_745
*29688 FILLER_159_753
*29689 FILLER_159_761
*29690 FILLER_159_769
*29587 FILLER_159_77
*29691 FILLER_159_777
*29692 FILLER_159_779
*29693 FILLER_159_781
*29694 FILLER_159_789
*29695 FILLER_159_797
*29578 FILLER_159_8
*29696 FILLER_159_805
*29697 FILLER_159_813
*29698 FILLER_159_821
*29699 FILLER_159_829
*29700 FILLER_159_837
*29701 FILLER_159_839
*29702 FILLER_159_841
*29703 FILLER_159_849
*29588 FILLER_159_85
*29704 FILLER_159_857
*29705 FILLER_159_865
*29706 FILLER_159_873
*29707 FILLER_159_881
*29708 FILLER_159_889
*29709 FILLER_159_897
*29710 FILLER_159_899
*29711 FILLER_159_901
*29712 FILLER_159_909
*29713 FILLER_159_917
*29714 FILLER_159_925
*29589 FILLER_159_93
*29715 FILLER_159_933
*29716 FILLER_159_941
*29717 FILLER_159_949
*29718 FILLER_159_957
*29719 FILLER_159_959
*29720 FILLER_159_961
*29721 FILLER_159_969
*29722 FILLER_159_977
*29723 FILLER_159_985
*29724 FILLER_159_993
*6455 FILLER_15_0
*6462 FILLER_15_1549
*6463 FILLER_15_1557
*6464 FILLER_15_1565
*6465 FILLER_15_1573
*6466 FILLER_15_1581
*6467 FILLER_15_1589
*6468 FILLER_15_1597
*6457 FILLER_15_16
*6469 FILLER_15_1605
*6470 FILLER_15_1610
*6471 FILLER_15_1618
*6472 FILLER_15_1626
*6473 FILLER_15_1634
*6474 FILLER_15_1642
*6475 FILLER_15_1650
*6476 FILLER_15_1658
*6477 FILLER_15_1666
*6478 FILLER_15_1668
*6479 FILLER_15_1670
*6480 FILLER_15_1678
*6481 FILLER_15_1686
*6482 FILLER_15_1694
*6483 FILLER_15_1702
*6484 FILLER_15_1710
*6485 FILLER_15_1718
*6486 FILLER_15_1726
*6487 FILLER_15_1728
*6488 FILLER_15_1730
*6489 FILLER_15_1738
*6490 FILLER_15_1746
*6491 FILLER_15_1754
*6492 FILLER_15_1762
*6493 FILLER_15_1770
*6494 FILLER_15_1778
*6495 FILLER_15_1786
*6496 FILLER_15_1788
*6497 FILLER_15_1790
*6498 FILLER_15_1798
*6499 FILLER_15_1806
*6500 FILLER_15_1814
*6501 FILLER_15_1822
*6502 FILLER_15_1830
*6503 FILLER_15_1838
*6504 FILLER_15_1846
*6505 FILLER_15_1848
*6506 FILLER_15_1850
*6507 FILLER_15_1858
*6508 FILLER_15_1866
*6509 FILLER_15_1874
*6510 FILLER_15_1882
*6511 FILLER_15_1890
*6512 FILLER_15_1898
*6513 FILLER_15_1906
*6514 FILLER_15_1908
*6515 FILLER_15_1910
*6516 FILLER_15_1918
*6517 FILLER_15_1926
*6518 FILLER_15_1934
*6519 FILLER_15_1942
*6520 FILLER_15_1950
*6521 FILLER_15_1958
*6522 FILLER_15_1966
*6523 FILLER_15_1968
*6524 FILLER_15_1970
*6525 FILLER_15_1978
*6526 FILLER_15_1986
*6527 FILLER_15_1994
*6528 FILLER_15_2002
*6529 FILLER_15_2010
*6530 FILLER_15_2018
*6531 FILLER_15_2026
*6532 FILLER_15_2028
*6533 FILLER_15_2030
*6534 FILLER_15_2038
*6535 FILLER_15_2046
*6536 FILLER_15_2054
*6537 FILLER_15_2062
*6538 FILLER_15_2070
*6539 FILLER_15_2078
*6540 FILLER_15_2086
*6541 FILLER_15_2088
*6542 FILLER_15_2090
*6543 FILLER_15_2098
*6544 FILLER_15_2106
*6545 FILLER_15_2114
*6546 FILLER_15_2122
*6458 FILLER_15_24
*6459 FILLER_15_32
*6460 FILLER_15_36
*6461 FILLER_15_38
*6456 FILLER_15_8
*29896 FILLER_160_0
*30047 FILLER_160_1007
*30048 FILLER_160_1015
*30049 FILLER_160_1023
*30050 FILLER_160_1031
*30051 FILLER_160_1039
*30052 FILLER_160_1047
*30053 FILLER_160_1049
*30054 FILLER_160_1051
*30055 FILLER_160_1059
*30056 FILLER_160_1067
*29912 FILLER_160_107
*30057 FILLER_160_1075
*30058 FILLER_160_1083
*30059 FILLER_160_1091
*30060 FILLER_160_1099
*30061 FILLER_160_1107
*30062 FILLER_160_1109
*30063 FILLER_160_1111
*30064 FILLER_160_1119
*30065 FILLER_160_1127
*30066 FILLER_160_1135
*30067 FILLER_160_1143
*29913 FILLER_160_115
*30068 FILLER_160_1151
*30069 FILLER_160_1159
*30070 FILLER_160_1167
*30071 FILLER_160_1169
*30072 FILLER_160_1171
*30073 FILLER_160_1179
*30074 FILLER_160_1187
*30075 FILLER_160_1195
*30076 FILLER_160_1203
*30077 FILLER_160_1211
*30078 FILLER_160_1219
*30079 FILLER_160_1227
*30080 FILLER_160_1229
*29914 FILLER_160_123
*30081 FILLER_160_1231
*30082 FILLER_160_1239
*30083 FILLER_160_1247
*30084 FILLER_160_1255
*30085 FILLER_160_1263
*30086 FILLER_160_1271
*30087 FILLER_160_1279
*30088 FILLER_160_1287
*30089 FILLER_160_1289
*30090 FILLER_160_1291
*30091 FILLER_160_1299
*30092 FILLER_160_1307
*29915 FILLER_160_131
*30093 FILLER_160_1315
*30094 FILLER_160_1323
*30095 FILLER_160_1331
*30096 FILLER_160_1339
*30097 FILLER_160_1347
*30098 FILLER_160_1349
*30099 FILLER_160_1351
*30100 FILLER_160_1359
*30101 FILLER_160_1367
*30102 FILLER_160_1375
*30103 FILLER_160_1383
*29916 FILLER_160_139
*30104 FILLER_160_1391
*30105 FILLER_160_1399
*30106 FILLER_160_1407
*30107 FILLER_160_1409
*30108 FILLER_160_1411
*30109 FILLER_160_1419
*30110 FILLER_160_1427
*30111 FILLER_160_1435
*30112 FILLER_160_1443
*30113 FILLER_160_1451
*30114 FILLER_160_1459
*30115 FILLER_160_1467
*30116 FILLER_160_1469
*29917 FILLER_160_147
*30117 FILLER_160_1471
*30118 FILLER_160_1479
*30119 FILLER_160_1487
*29918 FILLER_160_149
*30120 FILLER_160_1495
*30121 FILLER_160_1503
*29919 FILLER_160_151
*30122 FILLER_160_1511
*30123 FILLER_160_1519
*30124 FILLER_160_1527
*30125 FILLER_160_1529
*30126 FILLER_160_1531
*30127 FILLER_160_1539
*30128 FILLER_160_1547
*30129 FILLER_160_1555
*30130 FILLER_160_1563
*30131 FILLER_160_1571
*30132 FILLER_160_1579
*30133 FILLER_160_1587
*30134 FILLER_160_1589
*29920 FILLER_160_159
*30135 FILLER_160_1591
*30136 FILLER_160_1599
*29898 FILLER_160_16
*30137 FILLER_160_1607
*30138 FILLER_160_1615
*30139 FILLER_160_1623
*30140 FILLER_160_1631
*30141 FILLER_160_1639
*30142 FILLER_160_1647
*30143 FILLER_160_1649
*30144 FILLER_160_1651
*30145 FILLER_160_1659
*30146 FILLER_160_1667
*29921 FILLER_160_167
*30147 FILLER_160_1675
*30148 FILLER_160_1683
*30149 FILLER_160_1691
*30150 FILLER_160_1699
*30151 FILLER_160_1707
*30152 FILLER_160_1709
*30153 FILLER_160_1711
*30154 FILLER_160_1719
*30155 FILLER_160_1727
*30156 FILLER_160_1735
*30157 FILLER_160_1743
*29922 FILLER_160_175
*30158 FILLER_160_1751
*30159 FILLER_160_1759
*30160 FILLER_160_1767
*30161 FILLER_160_1769
*30162 FILLER_160_1771
*30163 FILLER_160_1779
*30164 FILLER_160_1787
*30165 FILLER_160_1795
*30166 FILLER_160_1803
*30167 FILLER_160_1811
*30168 FILLER_160_1819
*30169 FILLER_160_1827
*30170 FILLER_160_1829
*29923 FILLER_160_183
*30171 FILLER_160_1831
*30172 FILLER_160_1839
*30173 FILLER_160_1847
*30174 FILLER_160_1855
*30175 FILLER_160_1863
*30176 FILLER_160_1871
*30177 FILLER_160_1879
*30178 FILLER_160_1887
*30179 FILLER_160_1889
*30180 FILLER_160_1891
*30181 FILLER_160_1899
*30182 FILLER_160_1907
*29924 FILLER_160_191
*30183 FILLER_160_1915
*30184 FILLER_160_1923
*30185 FILLER_160_1931
*30186 FILLER_160_1939
*30187 FILLER_160_1947
*30188 FILLER_160_1949
*30189 FILLER_160_1951
*30190 FILLER_160_1959
*30191 FILLER_160_1967
*30192 FILLER_160_1975
*30193 FILLER_160_1983
*29925 FILLER_160_199
*30194 FILLER_160_1991
*30195 FILLER_160_1999
*30196 FILLER_160_2007
*30197 FILLER_160_2009
*30198 FILLER_160_2011
*30199 FILLER_160_2019
*30200 FILLER_160_2027
*30201 FILLER_160_2035
*30202 FILLER_160_2043
*30203 FILLER_160_2051
*30204 FILLER_160_2059
*30205 FILLER_160_2067
*30206 FILLER_160_2069
*29926 FILLER_160_207
*30207 FILLER_160_2071
*30208 FILLER_160_2079
*30209 FILLER_160_2087
*29927 FILLER_160_209
*30210 FILLER_160_2095
*30211 FILLER_160_2103
*29928 FILLER_160_211
*30212 FILLER_160_2111
*30213 FILLER_160_2119
*30214 FILLER_160_2127
*30215 FILLER_160_2129
*29929 FILLER_160_219
*29930 FILLER_160_227
*29931 FILLER_160_235
*29899 FILLER_160_24
*29932 FILLER_160_243
*29933 FILLER_160_251
*29934 FILLER_160_259
*29935 FILLER_160_267
*29936 FILLER_160_269
*29937 FILLER_160_271
*29938 FILLER_160_279
*29900 FILLER_160_28
*29939 FILLER_160_287
*29940 FILLER_160_295
*29941 FILLER_160_303
*29901 FILLER_160_31
*29942 FILLER_160_311
*29943 FILLER_160_319
*29944 FILLER_160_327
*29945 FILLER_160_329
*29946 FILLER_160_331
*29947 FILLER_160_339
*29948 FILLER_160_347
*29949 FILLER_160_355
*29950 FILLER_160_363
*29951 FILLER_160_371
*29952 FILLER_160_379
*29953 FILLER_160_387
*29954 FILLER_160_389
*29902 FILLER_160_39
*29955 FILLER_160_391
*29956 FILLER_160_399
*29957 FILLER_160_407
*29958 FILLER_160_415
*29959 FILLER_160_423
*29960 FILLER_160_431
*29961 FILLER_160_439
*29962 FILLER_160_447
*29963 FILLER_160_449
*29964 FILLER_160_451
*29965 FILLER_160_459
*29966 FILLER_160_467
*29903 FILLER_160_47
*29967 FILLER_160_475
*29968 FILLER_160_483
*29969 FILLER_160_491
*29970 FILLER_160_499
*29971 FILLER_160_507
*29972 FILLER_160_509
*29973 FILLER_160_511
*29974 FILLER_160_519
*29975 FILLER_160_527
*29976 FILLER_160_535
*29977 FILLER_160_543
*29904 FILLER_160_55
*29978 FILLER_160_551
*29979 FILLER_160_559
*29980 FILLER_160_567
*29981 FILLER_160_569
*29982 FILLER_160_571
*29983 FILLER_160_579
*29984 FILLER_160_587
*29985 FILLER_160_595
*29986 FILLER_160_603
*29987 FILLER_160_611
*29988 FILLER_160_619
*29989 FILLER_160_627
*29990 FILLER_160_629
*29905 FILLER_160_63
*29991 FILLER_160_631
*29992 FILLER_160_639
*29993 FILLER_160_647
*29994 FILLER_160_655
*29995 FILLER_160_663
*29996 FILLER_160_671
*29997 FILLER_160_679
*29998 FILLER_160_687
*29999 FILLER_160_689
*30000 FILLER_160_691
*30001 FILLER_160_699
*30002 FILLER_160_707
*29906 FILLER_160_71
*30003 FILLER_160_715
*30004 FILLER_160_723
*30005 FILLER_160_731
*30006 FILLER_160_739
*30007 FILLER_160_747
*30008 FILLER_160_749
*30009 FILLER_160_751
*30010 FILLER_160_759
*30011 FILLER_160_767
*30012 FILLER_160_775
*30013 FILLER_160_783
*29907 FILLER_160_79
*30014 FILLER_160_791
*30015 FILLER_160_799
*29897 FILLER_160_8
*30016 FILLER_160_807
*30017 FILLER_160_809
*30018 FILLER_160_811
*30019 FILLER_160_819
*30020 FILLER_160_827
*30021 FILLER_160_835
*30022 FILLER_160_843
*30023 FILLER_160_851
*30024 FILLER_160_859
*30025 FILLER_160_867
*30026 FILLER_160_869
*29908 FILLER_160_87
*30027 FILLER_160_871
*30028 FILLER_160_879
*30029 FILLER_160_887
*29909 FILLER_160_89
*30030 FILLER_160_895
*30031 FILLER_160_903
*29910 FILLER_160_91
*30032 FILLER_160_911
*30033 FILLER_160_919
*30034 FILLER_160_927
*30035 FILLER_160_929
*30036 FILLER_160_931
*30037 FILLER_160_939
*30038 FILLER_160_947
*30039 FILLER_160_955
*30040 FILLER_160_963
*30041 FILLER_160_971
*30042 FILLER_160_979
*30043 FILLER_160_987
*30044 FILLER_160_989
*29911 FILLER_160_99
*30045 FILLER_160_991
*30046 FILLER_160_999
*30216 FILLER_161_0
*30363 FILLER_161_1001
*30364 FILLER_161_1009
*30229 FILLER_161_101
*30365 FILLER_161_1017
*30366 FILLER_161_1019
*30367 FILLER_161_1021
*30368 FILLER_161_1029
*30369 FILLER_161_1037
*30370 FILLER_161_1045
*30371 FILLER_161_1053
*30372 FILLER_161_1061
*30373 FILLER_161_1069
*30374 FILLER_161_1077
*30375 FILLER_161_1079
*30376 FILLER_161_1081
*30377 FILLER_161_1089
*30230 FILLER_161_109
*30378 FILLER_161_1097
*30379 FILLER_161_1105
*30380 FILLER_161_1113
*30381 FILLER_161_1121
*30382 FILLER_161_1129
*30383 FILLER_161_1137
*30384 FILLER_161_1139
*30385 FILLER_161_1141
*30386 FILLER_161_1149
*30387 FILLER_161_1157
*30388 FILLER_161_1165
*30231 FILLER_161_117
*30389 FILLER_161_1173
*30390 FILLER_161_1181
*30391 FILLER_161_1189
*30232 FILLER_161_119
*30392 FILLER_161_1197
*30393 FILLER_161_1199
*30394 FILLER_161_1201
*30395 FILLER_161_1209
*30233 FILLER_161_121
*30396 FILLER_161_1217
*30397 FILLER_161_1225
*30398 FILLER_161_1233
*30399 FILLER_161_1241
*30400 FILLER_161_1249
*30401 FILLER_161_1257
*30402 FILLER_161_1259
*30403 FILLER_161_1261
*30404 FILLER_161_1269
*30405 FILLER_161_1277
*30406 FILLER_161_1285
*30234 FILLER_161_129
*30407 FILLER_161_1293
*30408 FILLER_161_1301
*30409 FILLER_161_1309
*30410 FILLER_161_1317
*30411 FILLER_161_1319
*30412 FILLER_161_1321
*30413 FILLER_161_1329
*30414 FILLER_161_1337
*30415 FILLER_161_1345
*30416 FILLER_161_1353
*30417 FILLER_161_1361
*30418 FILLER_161_1369
*30235 FILLER_161_137
*30419 FILLER_161_1377
*30420 FILLER_161_1379
*30421 FILLER_161_1381
*30422 FILLER_161_1389
*30423 FILLER_161_1397
*30424 FILLER_161_1405
*30425 FILLER_161_1413
*30426 FILLER_161_1421
*30427 FILLER_161_1429
*30428 FILLER_161_1437
*30429 FILLER_161_1439
*30430 FILLER_161_1441
*30431 FILLER_161_1449
*30236 FILLER_161_145
*30432 FILLER_161_1457
*30433 FILLER_161_1465
*30434 FILLER_161_1473
*30435 FILLER_161_1481
*30436 FILLER_161_1489
*30437 FILLER_161_1497
*30438 FILLER_161_1499
*30439 FILLER_161_1501
*30440 FILLER_161_1509
*30441 FILLER_161_1517
*30442 FILLER_161_1525
*30237 FILLER_161_153
*30443 FILLER_161_1533
*30444 FILLER_161_1541
*30445 FILLER_161_1549
*30446 FILLER_161_1557
*30447 FILLER_161_1559
*30448 FILLER_161_1561
*30449 FILLER_161_1569
*30450 FILLER_161_1577
*30451 FILLER_161_1585
*30452 FILLER_161_1593
*30218 FILLER_161_16
*30453 FILLER_161_1601
*30454 FILLER_161_1609
*30238 FILLER_161_161
*30455 FILLER_161_1617
*30456 FILLER_161_1619
*30457 FILLER_161_1621
*30458 FILLER_161_1629
*30459 FILLER_161_1637
*30460 FILLER_161_1645
*30461 FILLER_161_1653
*30462 FILLER_161_1661
*30463 FILLER_161_1669
*30464 FILLER_161_1677
*30465 FILLER_161_1679
*30466 FILLER_161_1681
*30467 FILLER_161_1689
*30239 FILLER_161_169
*30468 FILLER_161_1697
*30469 FILLER_161_1705
*30470 FILLER_161_1713
*30471 FILLER_161_1721
*30472 FILLER_161_1729
*30473 FILLER_161_1737
*30474 FILLER_161_1739
*30475 FILLER_161_1741
*30476 FILLER_161_1749
*30477 FILLER_161_1757
*30478 FILLER_161_1765
*30240 FILLER_161_177
*30479 FILLER_161_1773
*30480 FILLER_161_1781
*30481 FILLER_161_1789
*30241 FILLER_161_179
*30482 FILLER_161_1797
*30483 FILLER_161_1799
*30484 FILLER_161_1801
*30485 FILLER_161_1809
*30242 FILLER_161_181
*30486 FILLER_161_1817
*30487 FILLER_161_1825
*30488 FILLER_161_1833
*30489 FILLER_161_1841
*30490 FILLER_161_1849
*30491 FILLER_161_1857
*30492 FILLER_161_1859
*30493 FILLER_161_1861
*30494 FILLER_161_1869
*30495 FILLER_161_1877
*30496 FILLER_161_1885
*30243 FILLER_161_189
*30497 FILLER_161_1893
*30498 FILLER_161_1901
*30499 FILLER_161_1909
*30500 FILLER_161_1917
*30501 FILLER_161_1919
*30502 FILLER_161_1921
*30503 FILLER_161_1929
*30504 FILLER_161_1937
*30505 FILLER_161_1945
*30506 FILLER_161_1953
*30507 FILLER_161_1961
*30508 FILLER_161_1969
*30244 FILLER_161_197
*30509 FILLER_161_1977
*30510 FILLER_161_1979
*30511 FILLER_161_1981
*30512 FILLER_161_1989
*30513 FILLER_161_1997
*30514 FILLER_161_2005
*30515 FILLER_161_2013
*30516 FILLER_161_2021
*30517 FILLER_161_2029
*30518 FILLER_161_2037
*30519 FILLER_161_2039
*30520 FILLER_161_2041
*30521 FILLER_161_2049
*30245 FILLER_161_205
*30522 FILLER_161_2057
*30523 FILLER_161_2065
*30524 FILLER_161_2073
*30525 FILLER_161_2081
*30526 FILLER_161_2089
*30527 FILLER_161_2097
*30528 FILLER_161_2099
*30529 FILLER_161_2101
*30530 FILLER_161_2109
*30531 FILLER_161_2117
*30532 FILLER_161_2125
*30533 FILLER_161_2129
*30246 FILLER_161_213
*30247 FILLER_161_221
*30248 FILLER_161_229
*30249 FILLER_161_237
*30250 FILLER_161_239
*30219 FILLER_161_24
*30251 FILLER_161_241
*30252 FILLER_161_249
*30253 FILLER_161_257
*30254 FILLER_161_265
*30255 FILLER_161_273
*30256 FILLER_161_281
*30257 FILLER_161_289
*30258 FILLER_161_297
*30259 FILLER_161_299
*30260 FILLER_161_301
*30261 FILLER_161_309
*30262 FILLER_161_317
*30220 FILLER_161_32
*30263 FILLER_161_325
*30264 FILLER_161_333
*30265 FILLER_161_341
*30266 FILLER_161_349
*30267 FILLER_161_357
*30268 FILLER_161_359
*30269 FILLER_161_361
*30270 FILLER_161_369
*30271 FILLER_161_377
*30272 FILLER_161_385
*30273 FILLER_161_393
*30221 FILLER_161_40
*30274 FILLER_161_401
*30275 FILLER_161_409
*30276 FILLER_161_417
*30277 FILLER_161_419
*30278 FILLER_161_421
*30279 FILLER_161_429
*30280 FILLER_161_437
*30281 FILLER_161_445
*30282 FILLER_161_453
*30283 FILLER_161_461
*30284 FILLER_161_469
*30285 FILLER_161_477
*30286 FILLER_161_479
*30222 FILLER_161_48
*30287 FILLER_161_481
*30288 FILLER_161_489
*30289 FILLER_161_497
*30290 FILLER_161_505
*30291 FILLER_161_513
*30292 FILLER_161_521
*30293 FILLER_161_529
*30294 FILLER_161_537
*30295 FILLER_161_539
*30296 FILLER_161_541
*30297 FILLER_161_549
*30298 FILLER_161_557
*30223 FILLER_161_56
*30299 FILLER_161_565
*30300 FILLER_161_573
*30301 FILLER_161_581
*30302 FILLER_161_589
*30303 FILLER_161_597
*30304 FILLER_161_599
*30305 FILLER_161_601
*30306 FILLER_161_609
*30224 FILLER_161_61
*30307 FILLER_161_618
*30308 FILLER_161_626
*30309 FILLER_161_634
*30310 FILLER_161_642
*30311 FILLER_161_650
*30312 FILLER_161_658
*30313 FILLER_161_661
*30314 FILLER_161_669
*30315 FILLER_161_677
*30316 FILLER_161_685
*30225 FILLER_161_69
*30317 FILLER_161_693
*30318 FILLER_161_701
*30319 FILLER_161_709
*30320 FILLER_161_717
*30321 FILLER_161_719
*30322 FILLER_161_721
*30323 FILLER_161_729
*30324 FILLER_161_737
*30325 FILLER_161_745
*30326 FILLER_161_753
*30327 FILLER_161_761
*30328 FILLER_161_769
*30226 FILLER_161_77
*30329 FILLER_161_777
*30330 FILLER_161_779
*30331 FILLER_161_781
*30332 FILLER_161_789
*30333 FILLER_161_797
*30217 FILLER_161_8
*30334 FILLER_161_805
*30335 FILLER_161_813
*30336 FILLER_161_821
*30337 FILLER_161_829
*30338 FILLER_161_837
*30339 FILLER_161_839
*30340 FILLER_161_841
*30341 FILLER_161_849
*30227 FILLER_161_85
*30342 FILLER_161_857
*30343 FILLER_161_865
*30344 FILLER_161_873
*30345 FILLER_161_881
*30346 FILLER_161_889
*30347 FILLER_161_897
*30348 FILLER_161_899
*30349 FILLER_161_901
*30350 FILLER_161_909
*30351 FILLER_161_917
*30352 FILLER_161_925
*30228 FILLER_161_93
*30353 FILLER_161_933
*30354 FILLER_161_941
*30355 FILLER_161_949
*30356 FILLER_161_957
*30357 FILLER_161_959
*30358 FILLER_161_961
*30359 FILLER_161_969
*30360 FILLER_161_977
*30361 FILLER_161_985
*30362 FILLER_161_993
*30534 FILLER_162_0
*30685 FILLER_162_1007
*30686 FILLER_162_1015
*30687 FILLER_162_1023
*30688 FILLER_162_1031
*30689 FILLER_162_1039
*30690 FILLER_162_1047
*30691 FILLER_162_1049
*30692 FILLER_162_1051
*30693 FILLER_162_1059
*30694 FILLER_162_1067
*30550 FILLER_162_107
*30695 FILLER_162_1075
*30696 FILLER_162_1083
*30697 FILLER_162_1091
*30698 FILLER_162_1099
*30699 FILLER_162_1107
*30700 FILLER_162_1109
*30701 FILLER_162_1111
*30702 FILLER_162_1119
*30703 FILLER_162_1127
*30704 FILLER_162_1135
*30705 FILLER_162_1143
*30551 FILLER_162_115
*30706 FILLER_162_1151
*30707 FILLER_162_1159
*30708 FILLER_162_1167
*30709 FILLER_162_1169
*30710 FILLER_162_1171
*30711 FILLER_162_1179
*30712 FILLER_162_1187
*30713 FILLER_162_1195
*30714 FILLER_162_1203
*30715 FILLER_162_1211
*30716 FILLER_162_1219
*30717 FILLER_162_1227
*30718 FILLER_162_1229
*30552 FILLER_162_123
*30719 FILLER_162_1231
*30720 FILLER_162_1239
*30721 FILLER_162_1247
*30722 FILLER_162_1255
*30723 FILLER_162_1263
*30724 FILLER_162_1271
*30725 FILLER_162_1279
*30726 FILLER_162_1287
*30727 FILLER_162_1289
*30728 FILLER_162_1291
*30729 FILLER_162_1299
*30730 FILLER_162_1307
*30553 FILLER_162_131
*30731 FILLER_162_1315
*30732 FILLER_162_1323
*30733 FILLER_162_1331
*30734 FILLER_162_1339
*30735 FILLER_162_1347
*30736 FILLER_162_1349
*30737 FILLER_162_1351
*30738 FILLER_162_1359
*30739 FILLER_162_1367
*30740 FILLER_162_1375
*30741 FILLER_162_1383
*30554 FILLER_162_139
*30742 FILLER_162_1391
*30743 FILLER_162_1399
*30744 FILLER_162_1407
*30745 FILLER_162_1409
*30746 FILLER_162_1411
*30747 FILLER_162_1419
*30748 FILLER_162_1427
*30749 FILLER_162_1435
*30750 FILLER_162_1443
*30751 FILLER_162_1451
*30752 FILLER_162_1459
*30753 FILLER_162_1467
*30754 FILLER_162_1469
*30555 FILLER_162_147
*30755 FILLER_162_1471
*30756 FILLER_162_1479
*30757 FILLER_162_1487
*30556 FILLER_162_149
*30758 FILLER_162_1495
*30759 FILLER_162_1503
*30557 FILLER_162_151
*30760 FILLER_162_1511
*30761 FILLER_162_1519
*30762 FILLER_162_1527
*30763 FILLER_162_1529
*30764 FILLER_162_1531
*30765 FILLER_162_1539
*30766 FILLER_162_1547
*30767 FILLER_162_1555
*30768 FILLER_162_1563
*30769 FILLER_162_1571
*30770 FILLER_162_1579
*30771 FILLER_162_1587
*30772 FILLER_162_1589
*30558 FILLER_162_159
*30773 FILLER_162_1591
*30774 FILLER_162_1599
*30536 FILLER_162_16
*30775 FILLER_162_1607
*30776 FILLER_162_1615
*30777 FILLER_162_1623
*30778 FILLER_162_1631
*30779 FILLER_162_1639
*30780 FILLER_162_1647
*30781 FILLER_162_1649
*30782 FILLER_162_1651
*30783 FILLER_162_1659
*30784 FILLER_162_1667
*30559 FILLER_162_167
*30785 FILLER_162_1675
*30786 FILLER_162_1683
*30787 FILLER_162_1691
*30788 FILLER_162_1699
*30789 FILLER_162_1707
*30790 FILLER_162_1709
*30791 FILLER_162_1711
*30792 FILLER_162_1719
*30793 FILLER_162_1727
*30794 FILLER_162_1735
*30795 FILLER_162_1743
*30560 FILLER_162_175
*30796 FILLER_162_1751
*30797 FILLER_162_1759
*30798 FILLER_162_1767
*30799 FILLER_162_1769
*30800 FILLER_162_1771
*30801 FILLER_162_1779
*30802 FILLER_162_1787
*30803 FILLER_162_1795
*30804 FILLER_162_1803
*30805 FILLER_162_1811
*30806 FILLER_162_1819
*30807 FILLER_162_1827
*30808 FILLER_162_1829
*30561 FILLER_162_183
*30809 FILLER_162_1831
*30810 FILLER_162_1839
*30811 FILLER_162_1847
*30812 FILLER_162_1855
*30813 FILLER_162_1863
*30814 FILLER_162_1871
*30815 FILLER_162_1879
*30816 FILLER_162_1887
*30817 FILLER_162_1889
*30818 FILLER_162_1891
*30819 FILLER_162_1899
*30820 FILLER_162_1907
*30562 FILLER_162_191
*30821 FILLER_162_1915
*30822 FILLER_162_1923
*30823 FILLER_162_1931
*30824 FILLER_162_1939
*30825 FILLER_162_1947
*30826 FILLER_162_1949
*30827 FILLER_162_1951
*30828 FILLER_162_1959
*30829 FILLER_162_1967
*30830 FILLER_162_1975
*30831 FILLER_162_1983
*30563 FILLER_162_199
*30832 FILLER_162_1991
*30833 FILLER_162_1999
*30834 FILLER_162_2007
*30835 FILLER_162_2009
*30836 FILLER_162_2011
*30837 FILLER_162_2019
*30838 FILLER_162_2027
*30839 FILLER_162_2035
*30840 FILLER_162_2043
*30841 FILLER_162_2051
*30842 FILLER_162_2059
*30843 FILLER_162_2067
*30844 FILLER_162_2069
*30564 FILLER_162_207
*30845 FILLER_162_2071
*30846 FILLER_162_2079
*30847 FILLER_162_2087
*30565 FILLER_162_209
*30848 FILLER_162_2095
*30849 FILLER_162_2103
*30566 FILLER_162_211
*30850 FILLER_162_2111
*30851 FILLER_162_2119
*30852 FILLER_162_2127
*30853 FILLER_162_2129
*30567 FILLER_162_219
*30568 FILLER_162_227
*30569 FILLER_162_235
*30537 FILLER_162_24
*30570 FILLER_162_243
*30571 FILLER_162_251
*30572 FILLER_162_259
*30573 FILLER_162_267
*30574 FILLER_162_269
*30575 FILLER_162_271
*30576 FILLER_162_279
*30538 FILLER_162_28
*30577 FILLER_162_287
*30578 FILLER_162_295
*30579 FILLER_162_303
*30539 FILLER_162_31
*30580 FILLER_162_311
*30581 FILLER_162_319
*30582 FILLER_162_327
*30583 FILLER_162_329
*30584 FILLER_162_331
*30585 FILLER_162_339
*30586 FILLER_162_347
*30587 FILLER_162_355
*30588 FILLER_162_363
*30589 FILLER_162_371
*30590 FILLER_162_379
*30591 FILLER_162_387
*30592 FILLER_162_389
*30540 FILLER_162_39
*30593 FILLER_162_391
*30594 FILLER_162_399
*30595 FILLER_162_407
*30596 FILLER_162_415
*30597 FILLER_162_423
*30598 FILLER_162_431
*30599 FILLER_162_439
*30600 FILLER_162_447
*30601 FILLER_162_449
*30602 FILLER_162_451
*30603 FILLER_162_459
*30604 FILLER_162_467
*30541 FILLER_162_47
*30605 FILLER_162_475
*30606 FILLER_162_483
*30607 FILLER_162_491
*30608 FILLER_162_499
*30609 FILLER_162_507
*30610 FILLER_162_509
*30611 FILLER_162_511
*30612 FILLER_162_519
*30613 FILLER_162_527
*30614 FILLER_162_535
*30615 FILLER_162_543
*30542 FILLER_162_55
*30616 FILLER_162_551
*30617 FILLER_162_559
*30618 FILLER_162_567
*30619 FILLER_162_569
*30620 FILLER_162_571
*30621 FILLER_162_579
*30622 FILLER_162_587
*30623 FILLER_162_595
*30624 FILLER_162_603
*30625 FILLER_162_611
*30626 FILLER_162_619
*30627 FILLER_162_627
*30628 FILLER_162_629
*30543 FILLER_162_63
*30629 FILLER_162_631
*30630 FILLER_162_639
*30631 FILLER_162_647
*30632 FILLER_162_655
*30633 FILLER_162_663
*30634 FILLER_162_671
*30635 FILLER_162_679
*30636 FILLER_162_687
*30637 FILLER_162_689
*30638 FILLER_162_691
*30639 FILLER_162_699
*30640 FILLER_162_707
*30544 FILLER_162_71
*30641 FILLER_162_715
*30642 FILLER_162_723
*30643 FILLER_162_731
*30644 FILLER_162_739
*30645 FILLER_162_747
*30646 FILLER_162_749
*30647 FILLER_162_751
*30648 FILLER_162_759
*30649 FILLER_162_767
*30650 FILLER_162_775
*30651 FILLER_162_783
*30545 FILLER_162_79
*30652 FILLER_162_791
*30653 FILLER_162_799
*30535 FILLER_162_8
*30654 FILLER_162_807
*30655 FILLER_162_809
*30656 FILLER_162_811
*30657 FILLER_162_819
*30658 FILLER_162_827
*30659 FILLER_162_835
*30660 FILLER_162_843
*30661 FILLER_162_851
*30662 FILLER_162_859
*30663 FILLER_162_867
*30664 FILLER_162_869
*30546 FILLER_162_87
*30665 FILLER_162_871
*30666 FILLER_162_879
*30667 FILLER_162_887
*30547 FILLER_162_89
*30668 FILLER_162_895
*30669 FILLER_162_903
*30548 FILLER_162_91
*30670 FILLER_162_911
*30671 FILLER_162_919
*30672 FILLER_162_927
*30673 FILLER_162_929
*30674 FILLER_162_931
*30675 FILLER_162_939
*30676 FILLER_162_947
*30677 FILLER_162_955
*30678 FILLER_162_963
*30679 FILLER_162_971
*30680 FILLER_162_979
*30681 FILLER_162_987
*30682 FILLER_162_989
*30549 FILLER_162_99
*30683 FILLER_162_991
*30684 FILLER_162_999
*30854 FILLER_163_0
*31002 FILLER_163_1001
*31003 FILLER_163_1009
*30867 FILLER_163_101
*31004 FILLER_163_1017
*31005 FILLER_163_1019
*31006 FILLER_163_1021
*31007 FILLER_163_1029
*31008 FILLER_163_1037
*31009 FILLER_163_1045
*31010 FILLER_163_1053
*31011 FILLER_163_1061
*31012 FILLER_163_1069
*31013 FILLER_163_1077
*31014 FILLER_163_1079
*31015 FILLER_163_1081
*31016 FILLER_163_1089
*30868 FILLER_163_109
*31017 FILLER_163_1097
*31018 FILLER_163_1105
*31019 FILLER_163_1113
*31020 FILLER_163_1121
*31021 FILLER_163_1129
*31022 FILLER_163_1137
*31023 FILLER_163_1139
*31024 FILLER_163_1141
*31025 FILLER_163_1149
*31026 FILLER_163_1157
*31027 FILLER_163_1165
*30869 FILLER_163_117
*31028 FILLER_163_1173
*31029 FILLER_163_1181
*31030 FILLER_163_1189
*30870 FILLER_163_119
*31031 FILLER_163_1197
*31032 FILLER_163_1199
*31033 FILLER_163_1201
*31034 FILLER_163_1209
*30871 FILLER_163_121
*31035 FILLER_163_1217
*31036 FILLER_163_1225
*31037 FILLER_163_1233
*31038 FILLER_163_1241
*31039 FILLER_163_1249
*31040 FILLER_163_1257
*31041 FILLER_163_1259
*31042 FILLER_163_1261
*31043 FILLER_163_1269
*31044 FILLER_163_1277
*31045 FILLER_163_1285
*30872 FILLER_163_129
*31046 FILLER_163_1293
*31047 FILLER_163_1301
*31048 FILLER_163_1309
*31049 FILLER_163_1317
*31050 FILLER_163_1319
*31051 FILLER_163_1321
*31052 FILLER_163_1329
*31053 FILLER_163_1337
*31054 FILLER_163_1345
*31055 FILLER_163_1353
*31056 FILLER_163_1361
*31057 FILLER_163_1369
*30873 FILLER_163_137
*31058 FILLER_163_1377
*31059 FILLER_163_1379
*31060 FILLER_163_1381
*31061 FILLER_163_1389
*31062 FILLER_163_1397
*31063 FILLER_163_1405
*31064 FILLER_163_1413
*31065 FILLER_163_1421
*31066 FILLER_163_1429
*31067 FILLER_163_1437
*31068 FILLER_163_1439
*31069 FILLER_163_1441
*31070 FILLER_163_1449
*30874 FILLER_163_145
*31071 FILLER_163_1457
*31072 FILLER_163_1465
*31073 FILLER_163_1473
*31074 FILLER_163_1481
*31075 FILLER_163_1489
*31076 FILLER_163_1497
*31077 FILLER_163_1499
*31078 FILLER_163_1501
*31079 FILLER_163_1509
*31080 FILLER_163_1517
*31081 FILLER_163_1525
*30875 FILLER_163_153
*31082 FILLER_163_1533
*31083 FILLER_163_1541
*31084 FILLER_163_1549
*31085 FILLER_163_1557
*31086 FILLER_163_1559
*31087 FILLER_163_1561
*31088 FILLER_163_1569
*31089 FILLER_163_1577
*31090 FILLER_163_1585
*31091 FILLER_163_1593
*30856 FILLER_163_16
*31092 FILLER_163_1601
*31093 FILLER_163_1609
*30876 FILLER_163_161
*31094 FILLER_163_1617
*31095 FILLER_163_1619
*31096 FILLER_163_1621
*31097 FILLER_163_1629
*31098 FILLER_163_1637
*31099 FILLER_163_1645
*31100 FILLER_163_1653
*31101 FILLER_163_1661
*31102 FILLER_163_1669
*31103 FILLER_163_1677
*31104 FILLER_163_1679
*31105 FILLER_163_1681
*31106 FILLER_163_1689
*30877 FILLER_163_169
*31107 FILLER_163_1697
*31108 FILLER_163_1705
*31109 FILLER_163_1713
*31110 FILLER_163_1721
*31111 FILLER_163_1729
*31112 FILLER_163_1737
*31113 FILLER_163_1739
*31114 FILLER_163_1741
*31115 FILLER_163_1749
*31116 FILLER_163_1757
*31117 FILLER_163_1765
*30878 FILLER_163_177
*31118 FILLER_163_1773
*31119 FILLER_163_1781
*31120 FILLER_163_1789
*30879 FILLER_163_179
*31121 FILLER_163_1797
*31122 FILLER_163_1799
*31123 FILLER_163_1801
*31124 FILLER_163_1809
*30880 FILLER_163_181
*31125 FILLER_163_1817
*31126 FILLER_163_1825
*31127 FILLER_163_1833
*31128 FILLER_163_1841
*31129 FILLER_163_1849
*31130 FILLER_163_1857
*31131 FILLER_163_1859
*31132 FILLER_163_1861
*31133 FILLER_163_1869
*31134 FILLER_163_1877
*31135 FILLER_163_1885
*30881 FILLER_163_189
*31136 FILLER_163_1893
*31137 FILLER_163_1901
*31138 FILLER_163_1909
*31139 FILLER_163_1917
*31140 FILLER_163_1919
*31141 FILLER_163_1921
*31142 FILLER_163_1929
*31143 FILLER_163_1937
*31144 FILLER_163_1945
*31145 FILLER_163_1953
*31146 FILLER_163_1961
*31147 FILLER_163_1969
*30882 FILLER_163_197
*31148 FILLER_163_1977
*31149 FILLER_163_1979
*31150 FILLER_163_1981
*31151 FILLER_163_1989
*31152 FILLER_163_1997
*31153 FILLER_163_2005
*31154 FILLER_163_2013
*31155 FILLER_163_2021
*31156 FILLER_163_2029
*31157 FILLER_163_2037
*31158 FILLER_163_2039
*31159 FILLER_163_2041
*31160 FILLER_163_2049
*30883 FILLER_163_205
*31161 FILLER_163_2057
*31162 FILLER_163_2065
*31163 FILLER_163_2073
*31164 FILLER_163_2081
*31165 FILLER_163_2089
*31166 FILLER_163_2097
*31167 FILLER_163_2099
*31168 FILLER_163_2101
*31169 FILLER_163_2109
*31170 FILLER_163_2117
*31171 FILLER_163_2125
*31172 FILLER_163_2129
*30884 FILLER_163_213
*30885 FILLER_163_221
*30886 FILLER_163_229
*30887 FILLER_163_237
*30888 FILLER_163_239
*30857 FILLER_163_24
*30889 FILLER_163_241
*30890 FILLER_163_249
*30891 FILLER_163_257
*30892 FILLER_163_265
*30893 FILLER_163_273
*30894 FILLER_163_281
*30895 FILLER_163_289
*30896 FILLER_163_297
*30897 FILLER_163_299
*30898 FILLER_163_301
*30899 FILLER_163_309
*30900 FILLER_163_317
*30858 FILLER_163_32
*30901 FILLER_163_325
*30902 FILLER_163_333
*30903 FILLER_163_341
*30904 FILLER_163_349
*30905 FILLER_163_357
*30906 FILLER_163_359
*30907 FILLER_163_361
*30908 FILLER_163_369
*30909 FILLER_163_377
*30910 FILLER_163_385
*30911 FILLER_163_393
*30859 FILLER_163_40
*30912 FILLER_163_401
*30913 FILLER_163_409
*30914 FILLER_163_417
*30915 FILLER_163_419
*30916 FILLER_163_421
*30917 FILLER_163_429
*30918 FILLER_163_437
*30919 FILLER_163_445
*30920 FILLER_163_453
*30921 FILLER_163_461
*30922 FILLER_163_469
*30923 FILLER_163_477
*30924 FILLER_163_479
*30860 FILLER_163_48
*30925 FILLER_163_481
*30926 FILLER_163_489
*30927 FILLER_163_497
*30928 FILLER_163_505
*30929 FILLER_163_513
*30930 FILLER_163_521
*30931 FILLER_163_529
*30932 FILLER_163_537
*30933 FILLER_163_539
*30934 FILLER_163_541
*30935 FILLER_163_549
*30936 FILLER_163_557
*30861 FILLER_163_56
*30937 FILLER_163_565
*30938 FILLER_163_573
*30939 FILLER_163_581
*30940 FILLER_163_589
*30941 FILLER_163_597
*30942 FILLER_163_599
*30943 FILLER_163_601
*30944 FILLER_163_609
*30862 FILLER_163_61
*30945 FILLER_163_617
*30946 FILLER_163_625
*30947 FILLER_163_633
*30948 FILLER_163_641
*30949 FILLER_163_649
*30950 FILLER_163_657
*30951 FILLER_163_659
*30952 FILLER_163_661
*30953 FILLER_163_669
*30954 FILLER_163_677
*30955 FILLER_163_685
*30863 FILLER_163_69
*30956 FILLER_163_693
*30957 FILLER_163_701
*30958 FILLER_163_709
*30959 FILLER_163_717
*30960 FILLER_163_719
*30961 FILLER_163_721
*30962 FILLER_163_729
*30963 FILLER_163_737
*30964 FILLER_163_745
*30965 FILLER_163_753
*30966 FILLER_163_761
*30967 FILLER_163_769
*30864 FILLER_163_77
*30968 FILLER_163_777
*30969 FILLER_163_779
*30970 FILLER_163_781
*30971 FILLER_163_789
*30972 FILLER_163_797
*30855 FILLER_163_8
*30973 FILLER_163_805
*30974 FILLER_163_813
*30975 FILLER_163_821
*30976 FILLER_163_829
*30977 FILLER_163_837
*30978 FILLER_163_839
*30979 FILLER_163_841
*30980 FILLER_163_849
*30865 FILLER_163_85
*30981 FILLER_163_857
*30982 FILLER_163_865
*30983 FILLER_163_873
*30984 FILLER_163_881
*30985 FILLER_163_889
*30986 FILLER_163_897
*30987 FILLER_163_899
*30988 FILLER_163_901
*30989 FILLER_163_909
*30990 FILLER_163_917
*30991 FILLER_163_925
*30866 FILLER_163_93
*30992 FILLER_163_933
*30993 FILLER_163_941
*30994 FILLER_163_949
*30995 FILLER_163_957
*30996 FILLER_163_959
*30997 FILLER_163_961
*30998 FILLER_163_969
*30999 FILLER_163_977
*31000 FILLER_163_985
*31001 FILLER_163_993
*31173 FILLER_164_0
*31340 FILLER_164_1007
*31341 FILLER_164_1015
*31342 FILLER_164_1019
*31343 FILLER_164_1021
*31344 FILLER_164_1029
*31345 FILLER_164_1037
*31346 FILLER_164_1045
*31347 FILLER_164_1049
*31348 FILLER_164_1051
*31349 FILLER_164_1059
*31350 FILLER_164_1067
*31190 FILLER_164_107
*31351 FILLER_164_1075
*31352 FILLER_164_1079
*31353 FILLER_164_1081
*31354 FILLER_164_1089
*31355 FILLER_164_1097
*31356 FILLER_164_1105
*31357 FILLER_164_1109
*31358 FILLER_164_1111
*31359 FILLER_164_1119
*31360 FILLER_164_1127
*31361 FILLER_164_1135
*31362 FILLER_164_1139
*31363 FILLER_164_1141
*31364 FILLER_164_1149
*31191 FILLER_164_115
*31365 FILLER_164_1157
*31366 FILLER_164_1165
*31367 FILLER_164_1169
*31368 FILLER_164_1171
*31369 FILLER_164_1179
*31370 FILLER_164_1187
*31192 FILLER_164_119
*31371 FILLER_164_1195
*31372 FILLER_164_1199
*31373 FILLER_164_1201
*31374 FILLER_164_1209
*31193 FILLER_164_121
*31375 FILLER_164_1217
*31376 FILLER_164_1225
*31377 FILLER_164_1229
*31378 FILLER_164_1231
*31379 FILLER_164_1239
*31380 FILLER_164_1247
*31381 FILLER_164_1255
*31382 FILLER_164_1259
*31383 FILLER_164_1261
*31384 FILLER_164_1269
*31385 FILLER_164_1277
*31386 FILLER_164_1285
*31387 FILLER_164_1289
*31194 FILLER_164_129
*31388 FILLER_164_1291
*31389 FILLER_164_1299
*31390 FILLER_164_1307
*31391 FILLER_164_1315
*31392 FILLER_164_1319
*31393 FILLER_164_1321
*31394 FILLER_164_1329
*31395 FILLER_164_1337
*31396 FILLER_164_1345
*31397 FILLER_164_1349
*31398 FILLER_164_1351
*31399 FILLER_164_1359
*31400 FILLER_164_1367
*31195 FILLER_164_137
*31401 FILLER_164_1375
*31402 FILLER_164_1379
*31403 FILLER_164_1381
*31404 FILLER_164_1389
*31405 FILLER_164_1397
*31406 FILLER_164_1405
*31407 FILLER_164_1409
*31408 FILLER_164_1411
*31409 FILLER_164_1419
*31410 FILLER_164_1427
*31411 FILLER_164_1435
*31412 FILLER_164_1439
*31413 FILLER_164_1441
*31414 FILLER_164_1449
*31196 FILLER_164_145
*31415 FILLER_164_1457
*31416 FILLER_164_1465
*31417 FILLER_164_1469
*31418 FILLER_164_1471
*31419 FILLER_164_1479
*31420 FILLER_164_1487
*31197 FILLER_164_149
*31421 FILLER_164_1495
*31422 FILLER_164_1499
*31423 FILLER_164_1501
*31424 FILLER_164_1509
*31198 FILLER_164_151
*31425 FILLER_164_1517
*31426 FILLER_164_1525
*31427 FILLER_164_1529
*31428 FILLER_164_1531
*31429 FILLER_164_1539
*31430 FILLER_164_1547
*31431 FILLER_164_1555
*31432 FILLER_164_1559
*31433 FILLER_164_1561
*31434 FILLER_164_1569
*31435 FILLER_164_1577
*31436 FILLER_164_1585
*31437 FILLER_164_1589
*31199 FILLER_164_159
*31438 FILLER_164_1591
*31439 FILLER_164_1599
*31175 FILLER_164_16
*31440 FILLER_164_1607
*31441 FILLER_164_1615
*31442 FILLER_164_1619
*31443 FILLER_164_1621
*31444 FILLER_164_1629
*31445 FILLER_164_1637
*31446 FILLER_164_1645
*31447 FILLER_164_1649
*31448 FILLER_164_1651
*31449 FILLER_164_1659
*31450 FILLER_164_1667
*31200 FILLER_164_167
*31451 FILLER_164_1675
*31452 FILLER_164_1679
*31453 FILLER_164_1681
*31454 FILLER_164_1689
*31455 FILLER_164_1697
*31456 FILLER_164_1705
*31457 FILLER_164_1709
*31458 FILLER_164_1711
*31459 FILLER_164_1719
*31460 FILLER_164_1727
*31461 FILLER_164_1735
*31462 FILLER_164_1739
*31463 FILLER_164_1741
*31464 FILLER_164_1749
*31201 FILLER_164_175
*31465 FILLER_164_1757
*31466 FILLER_164_1765
*31467 FILLER_164_1769
*31468 FILLER_164_1771
*31469 FILLER_164_1779
*31470 FILLER_164_1787
*31202 FILLER_164_179
*31471 FILLER_164_1795
*31472 FILLER_164_1799
*31473 FILLER_164_1801
*31474 FILLER_164_1809
*31203 FILLER_164_181
*31475 FILLER_164_1817
*31476 FILLER_164_1825
*31477 FILLER_164_1829
*31478 FILLER_164_1831
*31479 FILLER_164_1839
*31480 FILLER_164_1847
*31481 FILLER_164_1855
*31482 FILLER_164_1859
*31483 FILLER_164_1861
*31484 FILLER_164_1869
*31485 FILLER_164_1877
*31486 FILLER_164_1885
*31487 FILLER_164_1889
*31204 FILLER_164_189
*31488 FILLER_164_1891
*31489 FILLER_164_1899
*31490 FILLER_164_1907
*31491 FILLER_164_1915
*31492 FILLER_164_1919
*31493 FILLER_164_1921
*31494 FILLER_164_1929
*31495 FILLER_164_1937
*31496 FILLER_164_1945
*31497 FILLER_164_1949
*31498 FILLER_164_1951
*31499 FILLER_164_1959
*31500 FILLER_164_1967
*31205 FILLER_164_197
*31501 FILLER_164_1975
*31502 FILLER_164_1979
*31503 FILLER_164_1981
*31504 FILLER_164_1989
*31505 FILLER_164_1997
*31506 FILLER_164_2005
*31507 FILLER_164_2009
*31508 FILLER_164_2011
*31509 FILLER_164_2019
*31510 FILLER_164_2027
*31511 FILLER_164_2035
*31512 FILLER_164_2039
*31513 FILLER_164_2041
*31514 FILLER_164_2049
*31206 FILLER_164_205
*31515 FILLER_164_2057
*31516 FILLER_164_2065
*31517 FILLER_164_2069
*31518 FILLER_164_2071
*31519 FILLER_164_2079
*31520 FILLER_164_2087
*31207 FILLER_164_209
*31521 FILLER_164_2095
*31522 FILLER_164_2099
*31523 FILLER_164_2101
*31524 FILLER_164_2109
*31208 FILLER_164_211
*31525 FILLER_164_2117
*31526 FILLER_164_2125
*31527 FILLER_164_2129
*31209 FILLER_164_219
*31210 FILLER_164_227
*31211 FILLER_164_235
*31212 FILLER_164_239
*31176 FILLER_164_24
*31213 FILLER_164_241
*31214 FILLER_164_249
*31215 FILLER_164_257
*31216 FILLER_164_265
*31217 FILLER_164_269
*31218 FILLER_164_271
*31219 FILLER_164_279
*31177 FILLER_164_28
*31220 FILLER_164_287
*31221 FILLER_164_295
*31222 FILLER_164_299
*31223 FILLER_164_301
*31224 FILLER_164_309
*31178 FILLER_164_31
*31225 FILLER_164_317
*31226 FILLER_164_325
*31227 FILLER_164_329
*31228 FILLER_164_331
*31229 FILLER_164_339
*31230 FILLER_164_347
*31231 FILLER_164_355
*31232 FILLER_164_359
*31233 FILLER_164_361
*31234 FILLER_164_369
*31235 FILLER_164_377
*31236 FILLER_164_385
*31237 FILLER_164_389
*31179 FILLER_164_39
*31238 FILLER_164_391
*31239 FILLER_164_399
*31240 FILLER_164_407
*31241 FILLER_164_415
*31242 FILLER_164_419
*31243 FILLER_164_421
*31244 FILLER_164_429
*31245 FILLER_164_437
*31246 FILLER_164_445
*31247 FILLER_164_449
*31248 FILLER_164_451
*31249 FILLER_164_459
*31250 FILLER_164_467
*31180 FILLER_164_47
*31251 FILLER_164_475
*31252 FILLER_164_479
*31253 FILLER_164_481
*31254 FILLER_164_489
*31255 FILLER_164_497
*31256 FILLER_164_505
*31257 FILLER_164_509
*31258 FILLER_164_511
*31259 FILLER_164_519
*31260 FILLER_164_527
*31261 FILLER_164_535
*31262 FILLER_164_539
*31263 FILLER_164_541
*31264 FILLER_164_549
*31181 FILLER_164_55
*31265 FILLER_164_557
*31266 FILLER_164_565
*31267 FILLER_164_569
*31268 FILLER_164_571
*31269 FILLER_164_579
*31270 FILLER_164_587
*31182 FILLER_164_59
*31271 FILLER_164_595
*31272 FILLER_164_599
*31273 FILLER_164_601
*31274 FILLER_164_609
*31183 FILLER_164_61
*31275 FILLER_164_617
*31276 FILLER_164_625
*31277 FILLER_164_629
*31278 FILLER_164_631
*31279 FILLER_164_639
*31280 FILLER_164_647
*31281 FILLER_164_655
*31282 FILLER_164_659
*31283 FILLER_164_661
*31284 FILLER_164_669
*31285 FILLER_164_677
*31286 FILLER_164_685
*31287 FILLER_164_689
*31184 FILLER_164_69
*31288 FILLER_164_691
*31289 FILLER_164_699
*31290 FILLER_164_707
*31291 FILLER_164_715
*31292 FILLER_164_719
*31293 FILLER_164_721
*31294 FILLER_164_729
*31295 FILLER_164_737
*31296 FILLER_164_745
*31297 FILLER_164_749
*31298 FILLER_164_751
*31299 FILLER_164_759
*31300 FILLER_164_767
*31185 FILLER_164_77
*31301 FILLER_164_775
*31302 FILLER_164_779
*31303 FILLER_164_781
*31304 FILLER_164_789
*31305 FILLER_164_797
*31174 FILLER_164_8
*31306 FILLER_164_805
*31307 FILLER_164_809
*31308 FILLER_164_811
*31309 FILLER_164_819
*31310 FILLER_164_827
*31311 FILLER_164_835
*31312 FILLER_164_839
*31313 FILLER_164_841
*31314 FILLER_164_849
*31186 FILLER_164_85
*31315 FILLER_164_857
*31316 FILLER_164_865
*31317 FILLER_164_869
*31318 FILLER_164_871
*31319 FILLER_164_879
*31320 FILLER_164_887
*31187 FILLER_164_89
*31321 FILLER_164_895
*31322 FILLER_164_899
*31323 FILLER_164_901
*31324 FILLER_164_909
*31188 FILLER_164_91
*31325 FILLER_164_917
*31326 FILLER_164_925
*31327 FILLER_164_929
*31328 FILLER_164_931
*31329 FILLER_164_939
*31330 FILLER_164_947
*31331 FILLER_164_955
*31332 FILLER_164_959
*31333 FILLER_164_961
*31334 FILLER_164_969
*31335 FILLER_164_977
*31336 FILLER_164_985
*31337 FILLER_164_989
*31189 FILLER_164_99
*31338 FILLER_164_991
*31339 FILLER_164_999
*6547 FILLER_16_0
*6553 FILLER_16_1549
*6554 FILLER_16_1557
*6555 FILLER_16_1565
*6556 FILLER_16_1573
*6557 FILLER_16_1577
*6558 FILLER_16_1580
*6559 FILLER_16_1588
*6560 FILLER_16_1596
*6549 FILLER_16_16
*6561 FILLER_16_1604
*6562 FILLER_16_1612
*6563 FILLER_16_1620
*6564 FILLER_16_1628
*6565 FILLER_16_1636
*6566 FILLER_16_1638
*6567 FILLER_16_1640
*6568 FILLER_16_1648
*6569 FILLER_16_1656
*6570 FILLER_16_1664
*6571 FILLER_16_1672
*6572 FILLER_16_1680
*6573 FILLER_16_1688
*6574 FILLER_16_1696
*6575 FILLER_16_1698
*6576 FILLER_16_1700
*6577 FILLER_16_1708
*6578 FILLER_16_1716
*6579 FILLER_16_1724
*6580 FILLER_16_1732
*6581 FILLER_16_1740
*6582 FILLER_16_1748
*6583 FILLER_16_1756
*6584 FILLER_16_1758
*6585 FILLER_16_1760
*6586 FILLER_16_1768
*6587 FILLER_16_1776
*6588 FILLER_16_1784
*6589 FILLER_16_1792
*6590 FILLER_16_1800
*6591 FILLER_16_1808
*6592 FILLER_16_1816
*6593 FILLER_16_1818
*6594 FILLER_16_1820
*6595 FILLER_16_1828
*6596 FILLER_16_1836
*6597 FILLER_16_1844
*6598 FILLER_16_1852
*6599 FILLER_16_1860
*6600 FILLER_16_1868
*6601 FILLER_16_1876
*6602 FILLER_16_1878
*6603 FILLER_16_1880
*6604 FILLER_16_1888
*6605 FILLER_16_1896
*6606 FILLER_16_1904
*6607 FILLER_16_1912
*6608 FILLER_16_1920
*6609 FILLER_16_1928
*6610 FILLER_16_1936
*6611 FILLER_16_1938
*6612 FILLER_16_1940
*6613 FILLER_16_1948
*6614 FILLER_16_1956
*6615 FILLER_16_1964
*6616 FILLER_16_1972
*6617 FILLER_16_1980
*6618 FILLER_16_1988
*6619 FILLER_16_1996
*6620 FILLER_16_1998
*6621 FILLER_16_2000
*6622 FILLER_16_2008
*6623 FILLER_16_2016
*6624 FILLER_16_2024
*6625 FILLER_16_2032
*6626 FILLER_16_2040
*6627 FILLER_16_2048
*6628 FILLER_16_2056
*6629 FILLER_16_2058
*6630 FILLER_16_2060
*6631 FILLER_16_2068
*6632 FILLER_16_2076
*6633 FILLER_16_2084
*6634 FILLER_16_2092
*6635 FILLER_16_2100
*6636 FILLER_16_2108
*6637 FILLER_16_2116
*6638 FILLER_16_2118
*6639 FILLER_16_2120
*6640 FILLER_16_2128
*6550 FILLER_16_24
*6551 FILLER_16_28
*6552 FILLER_16_31
*6548 FILLER_16_8
*6641 FILLER_17_0
*6648 FILLER_17_1549
*6649 FILLER_17_1557
*6650 FILLER_17_1565
*6651 FILLER_17_1573
*6652 FILLER_17_1581
*6653 FILLER_17_1589
*6654 FILLER_17_1597
*6643 FILLER_17_16
*6655 FILLER_17_1605
*6656 FILLER_17_1610
*6657 FILLER_17_1618
*6658 FILLER_17_1626
*6659 FILLER_17_1634
*6660 FILLER_17_1642
*6661 FILLER_17_1650
*6662 FILLER_17_1658
*6663 FILLER_17_1666
*6664 FILLER_17_1668
*6665 FILLER_17_1670
*6666 FILLER_17_1678
*6667 FILLER_17_1686
*6668 FILLER_17_1694
*6669 FILLER_17_1702
*6670 FILLER_17_1710
*6671 FILLER_17_1718
*6672 FILLER_17_1726
*6673 FILLER_17_1728
*6674 FILLER_17_1730
*6675 FILLER_17_1738
*6676 FILLER_17_1746
*6677 FILLER_17_1754
*6678 FILLER_17_1762
*6679 FILLER_17_1770
*6680 FILLER_17_1778
*6681 FILLER_17_1786
*6682 FILLER_17_1788
*6683 FILLER_17_1790
*6684 FILLER_17_1798
*6685 FILLER_17_1806
*6686 FILLER_17_1814
*6687 FILLER_17_1822
*6688 FILLER_17_1830
*6689 FILLER_17_1838
*6690 FILLER_17_1846
*6691 FILLER_17_1848
*6692 FILLER_17_1850
*6693 FILLER_17_1858
*6694 FILLER_17_1866
*6695 FILLER_17_1874
*6696 FILLER_17_1882
*6697 FILLER_17_1890
*6698 FILLER_17_1898
*6699 FILLER_17_1906
*6700 FILLER_17_1908
*6701 FILLER_17_1910
*6702 FILLER_17_1918
*6703 FILLER_17_1926
*6704 FILLER_17_1934
*6705 FILLER_17_1942
*6706 FILLER_17_1950
*6707 FILLER_17_1958
*6708 FILLER_17_1966
*6709 FILLER_17_1968
*6710 FILLER_17_1970
*6711 FILLER_17_1978
*6712 FILLER_17_1986
*6713 FILLER_17_1994
*6714 FILLER_17_2002
*6715 FILLER_17_2010
*6716 FILLER_17_2018
*6717 FILLER_17_2026
*6718 FILLER_17_2028
*6719 FILLER_17_2030
*6720 FILLER_17_2038
*6721 FILLER_17_2046
*6722 FILLER_17_2054
*6723 FILLER_17_2062
*6724 FILLER_17_2070
*6725 FILLER_17_2078
*6726 FILLER_17_2086
*6727 FILLER_17_2088
*6728 FILLER_17_2090
*6729 FILLER_17_2098
*6730 FILLER_17_2106
*6731 FILLER_17_2114
*6732 FILLER_17_2122
*6644 FILLER_17_24
*6645 FILLER_17_32
*6646 FILLER_17_36
*6647 FILLER_17_38
*6642 FILLER_17_8
*6733 FILLER_18_0
*6739 FILLER_18_1549
*6740 FILLER_18_1557
*6741 FILLER_18_1565
*6742 FILLER_18_1573
*6743 FILLER_18_1577
*6744 FILLER_18_1580
*6745 FILLER_18_1588
*6746 FILLER_18_1596
*6735 FILLER_18_16
*6747 FILLER_18_1604
*6748 FILLER_18_1612
*6749 FILLER_18_1620
*6750 FILLER_18_1628
*6751 FILLER_18_1636
*6752 FILLER_18_1638
*6753 FILLER_18_1640
*6754 FILLER_18_1648
*6755 FILLER_18_1656
*6756 FILLER_18_1664
*6757 FILLER_18_1672
*6758 FILLER_18_1680
*6759 FILLER_18_1688
*6760 FILLER_18_1696
*6761 FILLER_18_1698
*6762 FILLER_18_1700
*6763 FILLER_18_1708
*6764 FILLER_18_1716
*6765 FILLER_18_1724
*6766 FILLER_18_1732
*6767 FILLER_18_1740
*6768 FILLER_18_1748
*6769 FILLER_18_1756
*6770 FILLER_18_1758
*6771 FILLER_18_1760
*6772 FILLER_18_1768
*6773 FILLER_18_1776
*6774 FILLER_18_1784
*6775 FILLER_18_1792
*6776 FILLER_18_1800
*6777 FILLER_18_1808
*6778 FILLER_18_1816
*6779 FILLER_18_1818
*6780 FILLER_18_1820
*6781 FILLER_18_1828
*6782 FILLER_18_1836
*6783 FILLER_18_1844
*6784 FILLER_18_1852
*6785 FILLER_18_1860
*6786 FILLER_18_1868
*6787 FILLER_18_1876
*6788 FILLER_18_1878
*6789 FILLER_18_1880
*6790 FILLER_18_1888
*6791 FILLER_18_1896
*6792 FILLER_18_1904
*6793 FILLER_18_1912
*6794 FILLER_18_1920
*6795 FILLER_18_1928
*6796 FILLER_18_1936
*6797 FILLER_18_1938
*6798 FILLER_18_1940
*6799 FILLER_18_1948
*6800 FILLER_18_1956
*6801 FILLER_18_1964
*6802 FILLER_18_1972
*6803 FILLER_18_1980
*6804 FILLER_18_1988
*6805 FILLER_18_1996
*6806 FILLER_18_1998
*6807 FILLER_18_2000
*6808 FILLER_18_2008
*6809 FILLER_18_2016
*6810 FILLER_18_2024
*6811 FILLER_18_2032
*6812 FILLER_18_2040
*6813 FILLER_18_2048
*6814 FILLER_18_2056
*6815 FILLER_18_2058
*6816 FILLER_18_2060
*6817 FILLER_18_2068
*6818 FILLER_18_2076
*6819 FILLER_18_2084
*6820 FILLER_18_2092
*6821 FILLER_18_2100
*6822 FILLER_18_2108
*6823 FILLER_18_2116
*6824 FILLER_18_2118
*6825 FILLER_18_2120
*6826 FILLER_18_2128
*6736 FILLER_18_24
*6737 FILLER_18_28
*6738 FILLER_18_31
*6734 FILLER_18_8
*6827 FILLER_19_0
*6834 FILLER_19_1549
*6835 FILLER_19_1557
*6836 FILLER_19_1565
*6837 FILLER_19_1573
*6838 FILLER_19_1581
*6839 FILLER_19_1589
*6840 FILLER_19_1597
*6829 FILLER_19_16
*6841 FILLER_19_1605
*6842 FILLER_19_1610
*6843 FILLER_19_1618
*6844 FILLER_19_1626
*6845 FILLER_19_1634
*6846 FILLER_19_1642
*6847 FILLER_19_1650
*6848 FILLER_19_1658
*6849 FILLER_19_1666
*6850 FILLER_19_1668
*6851 FILLER_19_1670
*6852 FILLER_19_1678
*6853 FILLER_19_1686
*6854 FILLER_19_1694
*6855 FILLER_19_1702
*6856 FILLER_19_1710
*6857 FILLER_19_1718
*6858 FILLER_19_1726
*6859 FILLER_19_1728
*6860 FILLER_19_1730
*6861 FILLER_19_1738
*6862 FILLER_19_1746
*6863 FILLER_19_1754
*6864 FILLER_19_1762
*6865 FILLER_19_1770
*6866 FILLER_19_1778
*6867 FILLER_19_1786
*6868 FILLER_19_1788
*6869 FILLER_19_1790
*6870 FILLER_19_1798
*6871 FILLER_19_1806
*6872 FILLER_19_1814
*6873 FILLER_19_1822
*6874 FILLER_19_1830
*6875 FILLER_19_1838
*6876 FILLER_19_1846
*6877 FILLER_19_1848
*6878 FILLER_19_1850
*6879 FILLER_19_1858
*6880 FILLER_19_1866
*6881 FILLER_19_1874
*6882 FILLER_19_1882
*6883 FILLER_19_1890
*6884 FILLER_19_1898
*6885 FILLER_19_1906
*6886 FILLER_19_1908
*6887 FILLER_19_1910
*6888 FILLER_19_1918
*6889 FILLER_19_1926
*6890 FILLER_19_1934
*6891 FILLER_19_1942
*6892 FILLER_19_1950
*6893 FILLER_19_1958
*6894 FILLER_19_1966
*6895 FILLER_19_1968
*6896 FILLER_19_1970
*6897 FILLER_19_1978
*6898 FILLER_19_1986
*6899 FILLER_19_1994
*6900 FILLER_19_2002
*6901 FILLER_19_2010
*6902 FILLER_19_2018
*6903 FILLER_19_2026
*6904 FILLER_19_2028
*6905 FILLER_19_2030
*6906 FILLER_19_2038
*6907 FILLER_19_2046
*6908 FILLER_19_2054
*6909 FILLER_19_2062
*6910 FILLER_19_2070
*6911 FILLER_19_2078
*6912 FILLER_19_2086
*6913 FILLER_19_2088
*6914 FILLER_19_2090
*6915 FILLER_19_2098
*6916 FILLER_19_2106
*6917 FILLER_19_2114
*6918 FILLER_19_2122
*6830 FILLER_19_24
*6831 FILLER_19_32
*6832 FILLER_19_36
*6833 FILLER_19_38
*6828 FILLER_19_8
*3984 FILLER_1_0
*4132 FILLER_1_1001
*4133 FILLER_1_1009
*3997 FILLER_1_101
*4134 FILLER_1_1017
*4135 FILLER_1_1019
*4136 FILLER_1_1021
*4137 FILLER_1_1029
*4138 FILLER_1_1037
*4139 FILLER_1_1045
*4140 FILLER_1_1053
*4141 FILLER_1_1061
*4142 FILLER_1_1069
*4143 FILLER_1_1077
*4144 FILLER_1_1079
*4145 FILLER_1_1081
*4146 FILLER_1_1089
*3998 FILLER_1_109
*4147 FILLER_1_1097
*4148 FILLER_1_1105
*4149 FILLER_1_1113
*4150 FILLER_1_1121
*4151 FILLER_1_1129
*4152 FILLER_1_1137
*4153 FILLER_1_1139
*4154 FILLER_1_1141
*4155 FILLER_1_1149
*4156 FILLER_1_1157
*4157 FILLER_1_1165
*3999 FILLER_1_117
*4158 FILLER_1_1173
*4159 FILLER_1_1181
*4160 FILLER_1_1189
*4000 FILLER_1_119
*4161 FILLER_1_1197
*4162 FILLER_1_1199
*4163 FILLER_1_1201
*4164 FILLER_1_1209
*4001 FILLER_1_121
*4165 FILLER_1_1217
*4166 FILLER_1_1225
*4167 FILLER_1_1233
*4168 FILLER_1_1241
*4169 FILLER_1_1249
*4170 FILLER_1_1257
*4171 FILLER_1_1259
*4172 FILLER_1_1261
*4173 FILLER_1_1269
*4174 FILLER_1_1277
*4175 FILLER_1_1285
*4002 FILLER_1_129
*4176 FILLER_1_1293
*4177 FILLER_1_1301
*4178 FILLER_1_1309
*4179 FILLER_1_1317
*4180 FILLER_1_1319
*4181 FILLER_1_1321
*4182 FILLER_1_1329
*4183 FILLER_1_1337
*4184 FILLER_1_1345
*4185 FILLER_1_1353
*4186 FILLER_1_1361
*4187 FILLER_1_1369
*4003 FILLER_1_137
*4188 FILLER_1_1377
*4189 FILLER_1_1379
*4190 FILLER_1_1381
*4191 FILLER_1_1389
*4192 FILLER_1_1397
*4193 FILLER_1_1405
*4194 FILLER_1_1413
*4195 FILLER_1_1421
*4196 FILLER_1_1429
*4197 FILLER_1_1437
*4198 FILLER_1_1439
*4199 FILLER_1_1441
*4200 FILLER_1_1449
*4004 FILLER_1_145
*4201 FILLER_1_1457
*4202 FILLER_1_1465
*4203 FILLER_1_1473
*4204 FILLER_1_1481
*4205 FILLER_1_1489
*4206 FILLER_1_1497
*4207 FILLER_1_1499
*4208 FILLER_1_1501
*4209 FILLER_1_1509
*4210 FILLER_1_1517
*4211 FILLER_1_1525
*4005 FILLER_1_153
*4212 FILLER_1_1533
*4213 FILLER_1_1541
*4214 FILLER_1_1549
*4215 FILLER_1_1557
*4216 FILLER_1_1559
*4217 FILLER_1_1561
*4218 FILLER_1_1569
*4219 FILLER_1_1577
*4220 FILLER_1_1585
*4221 FILLER_1_1593
*3986 FILLER_1_16
*4222 FILLER_1_1601
*4223 FILLER_1_1609
*4006 FILLER_1_161
*4224 FILLER_1_1617
*4225 FILLER_1_1619
*4226 FILLER_1_1621
*4227 FILLER_1_1629
*4228 FILLER_1_1637
*4229 FILLER_1_1645
*4230 FILLER_1_1653
*4231 FILLER_1_1661
*4232 FILLER_1_1669
*4233 FILLER_1_1677
*4234 FILLER_1_1679
*4235 FILLER_1_1681
*4236 FILLER_1_1689
*4007 FILLER_1_169
*4237 FILLER_1_1697
*4238 FILLER_1_1705
*4239 FILLER_1_1713
*4240 FILLER_1_1721
*4241 FILLER_1_1729
*4242 FILLER_1_1737
*4243 FILLER_1_1739
*4244 FILLER_1_1741
*4245 FILLER_1_1749
*4246 FILLER_1_1757
*4247 FILLER_1_1765
*4008 FILLER_1_177
*4248 FILLER_1_1773
*4249 FILLER_1_1781
*4250 FILLER_1_1789
*4009 FILLER_1_179
*4251 FILLER_1_1797
*4252 FILLER_1_1799
*4253 FILLER_1_1801
*4254 FILLER_1_1809
*4010 FILLER_1_181
*4255 FILLER_1_1817
*4256 FILLER_1_1825
*4257 FILLER_1_1833
*4258 FILLER_1_1841
*4259 FILLER_1_1849
*4260 FILLER_1_1857
*4261 FILLER_1_1859
*4262 FILLER_1_1861
*4263 FILLER_1_1869
*4264 FILLER_1_1877
*4265 FILLER_1_1885
*4011 FILLER_1_189
*4266 FILLER_1_1893
*4267 FILLER_1_1901
*4268 FILLER_1_1909
*4269 FILLER_1_1917
*4270 FILLER_1_1919
*4271 FILLER_1_1921
*4272 FILLER_1_1929
*4273 FILLER_1_1937
*4274 FILLER_1_1945
*4275 FILLER_1_1953
*4276 FILLER_1_1961
*4277 FILLER_1_1969
*4012 FILLER_1_197
*4278 FILLER_1_1977
*4279 FILLER_1_1979
*4280 FILLER_1_1981
*4281 FILLER_1_1989
*4282 FILLER_1_1997
*4283 FILLER_1_2005
*4284 FILLER_1_2013
*4285 FILLER_1_2021
*4286 FILLER_1_2029
*4287 FILLER_1_2037
*4288 FILLER_1_2039
*4289 FILLER_1_2041
*4290 FILLER_1_2049
*4013 FILLER_1_205
*4291 FILLER_1_2057
*4292 FILLER_1_2065
*4293 FILLER_1_2073
*4294 FILLER_1_2081
*4295 FILLER_1_2089
*4296 FILLER_1_2097
*4297 FILLER_1_2099
*4298 FILLER_1_2101
*4299 FILLER_1_2109
*4300 FILLER_1_2117
*4301 FILLER_1_2125
*4302 FILLER_1_2129
*4014 FILLER_1_213
*4015 FILLER_1_221
*4016 FILLER_1_229
*4017 FILLER_1_237
*4018 FILLER_1_239
*3987 FILLER_1_24
*4019 FILLER_1_241
*4020 FILLER_1_249
*4021 FILLER_1_257
*4022 FILLER_1_265
*4023 FILLER_1_273
*4024 FILLER_1_281
*4025 FILLER_1_289
*4026 FILLER_1_297
*4027 FILLER_1_299
*4028 FILLER_1_301
*4029 FILLER_1_309
*4030 FILLER_1_317
*3988 FILLER_1_32
*4031 FILLER_1_325
*4032 FILLER_1_333
*4033 FILLER_1_341
*4034 FILLER_1_349
*4035 FILLER_1_357
*4036 FILLER_1_359
*4037 FILLER_1_361
*4038 FILLER_1_369
*4039 FILLER_1_377
*4040 FILLER_1_385
*4041 FILLER_1_393
*3989 FILLER_1_40
*4042 FILLER_1_401
*4043 FILLER_1_409
*4044 FILLER_1_417
*4045 FILLER_1_419
*4046 FILLER_1_421
*4047 FILLER_1_429
*4048 FILLER_1_437
*4049 FILLER_1_445
*4050 FILLER_1_453
*4051 FILLER_1_461
*4052 FILLER_1_469
*4053 FILLER_1_477
*4054 FILLER_1_479
*3990 FILLER_1_48
*4055 FILLER_1_481
*4056 FILLER_1_489
*4057 FILLER_1_497
*4058 FILLER_1_505
*4059 FILLER_1_513
*4060 FILLER_1_521
*4061 FILLER_1_529
*4062 FILLER_1_537
*4063 FILLER_1_539
*4064 FILLER_1_541
*4065 FILLER_1_549
*4066 FILLER_1_557
*3991 FILLER_1_56
*4067 FILLER_1_565
*4068 FILLER_1_573
*4069 FILLER_1_581
*4070 FILLER_1_589
*4071 FILLER_1_597
*4072 FILLER_1_599
*4073 FILLER_1_601
*4074 FILLER_1_609
*3992 FILLER_1_61
*4075 FILLER_1_617
*4076 FILLER_1_625
*4077 FILLER_1_633
*4078 FILLER_1_641
*4079 FILLER_1_649
*4080 FILLER_1_657
*4081 FILLER_1_659
*4082 FILLER_1_661
*4083 FILLER_1_669
*4084 FILLER_1_677
*4085 FILLER_1_685
*3993 FILLER_1_69
*4086 FILLER_1_693
*4087 FILLER_1_701
*4088 FILLER_1_709
*4089 FILLER_1_717
*4090 FILLER_1_719
*4091 FILLER_1_721
*4092 FILLER_1_729
*4093 FILLER_1_737
*4094 FILLER_1_745
*4095 FILLER_1_753
*4096 FILLER_1_761
*4097 FILLER_1_769
*3994 FILLER_1_77
*4098 FILLER_1_777
*4099 FILLER_1_779
*4100 FILLER_1_781
*4101 FILLER_1_789
*4102 FILLER_1_797
*3985 FILLER_1_8
*4103 FILLER_1_805
*4104 FILLER_1_813
*4105 FILLER_1_821
*4106 FILLER_1_829
*4107 FILLER_1_837
*4108 FILLER_1_839
*4109 FILLER_1_841
*4110 FILLER_1_849
*3995 FILLER_1_85
*4111 FILLER_1_857
*4112 FILLER_1_865
*4113 FILLER_1_873
*4114 FILLER_1_881
*4115 FILLER_1_889
*4116 FILLER_1_897
*4117 FILLER_1_899
*4118 FILLER_1_901
*4119 FILLER_1_909
*4120 FILLER_1_917
*4121 FILLER_1_925
*3996 FILLER_1_93
*4122 FILLER_1_933
*4123 FILLER_1_941
*4124 FILLER_1_949
*4125 FILLER_1_957
*4126 FILLER_1_959
*4127 FILLER_1_961
*4128 FILLER_1_969
*4129 FILLER_1_977
*4130 FILLER_1_985
*4131 FILLER_1_993
*6919 FILLER_20_0
*6925 FILLER_20_1549
*6926 FILLER_20_1557
*6927 FILLER_20_1565
*6928 FILLER_20_1573
*6929 FILLER_20_1577
*6930 FILLER_20_1580
*6931 FILLER_20_1588
*6932 FILLER_20_1596
*6921 FILLER_20_16
*6933 FILLER_20_1604
*6934 FILLER_20_1612
*6935 FILLER_20_1620
*6936 FILLER_20_1628
*6937 FILLER_20_1636
*6938 FILLER_20_1638
*6939 FILLER_20_1640
*6940 FILLER_20_1648
*6941 FILLER_20_1656
*6942 FILLER_20_1664
*6943 FILLER_20_1672
*6944 FILLER_20_1680
*6945 FILLER_20_1688
*6946 FILLER_20_1696
*6947 FILLER_20_1698
*6948 FILLER_20_1700
*6949 FILLER_20_1708
*6950 FILLER_20_1716
*6951 FILLER_20_1724
*6952 FILLER_20_1732
*6953 FILLER_20_1740
*6954 FILLER_20_1748
*6955 FILLER_20_1756
*6956 FILLER_20_1758
*6957 FILLER_20_1760
*6958 FILLER_20_1768
*6959 FILLER_20_1776
*6960 FILLER_20_1784
*6961 FILLER_20_1792
*6962 FILLER_20_1800
*6963 FILLER_20_1808
*6964 FILLER_20_1816
*6965 FILLER_20_1818
*6966 FILLER_20_1820
*6967 FILLER_20_1828
*6968 FILLER_20_1836
*6969 FILLER_20_1844
*6970 FILLER_20_1852
*6971 FILLER_20_1860
*6972 FILLER_20_1868
*6973 FILLER_20_1876
*6974 FILLER_20_1878
*6975 FILLER_20_1880
*6976 FILLER_20_1888
*6977 FILLER_20_1896
*6978 FILLER_20_1904
*6979 FILLER_20_1912
*6980 FILLER_20_1920
*6981 FILLER_20_1928
*6982 FILLER_20_1936
*6983 FILLER_20_1938
*6984 FILLER_20_1940
*6985 FILLER_20_1948
*6986 FILLER_20_1956
*6987 FILLER_20_1964
*6988 FILLER_20_1972
*6989 FILLER_20_1980
*6990 FILLER_20_1988
*6991 FILLER_20_1996
*6992 FILLER_20_1998
*6993 FILLER_20_2000
*6994 FILLER_20_2008
*6995 FILLER_20_2016
*6996 FILLER_20_2024
*6997 FILLER_20_2032
*6998 FILLER_20_2040
*6999 FILLER_20_2048
*7000 FILLER_20_2056
*7001 FILLER_20_2058
*7002 FILLER_20_2060
*7003 FILLER_20_2068
*7004 FILLER_20_2076
*7005 FILLER_20_2084
*7006 FILLER_20_2092
*7007 FILLER_20_2100
*7008 FILLER_20_2108
*7009 FILLER_20_2116
*7010 FILLER_20_2118
*7011 FILLER_20_2120
*7012 FILLER_20_2128
*6922 FILLER_20_24
*6923 FILLER_20_28
*6924 FILLER_20_31
*6920 FILLER_20_8
*7013 FILLER_21_0
*7020 FILLER_21_1549
*7021 FILLER_21_1557
*7022 FILLER_21_1565
*7023 FILLER_21_1573
*7024 FILLER_21_1581
*7025 FILLER_21_1589
*7026 FILLER_21_1597
*7015 FILLER_21_16
*7027 FILLER_21_1605
*7028 FILLER_21_1610
*7029 FILLER_21_1618
*7030 FILLER_21_1626
*7031 FILLER_21_1634
*7032 FILLER_21_1642
*7033 FILLER_21_1650
*7034 FILLER_21_1658
*7035 FILLER_21_1666
*7036 FILLER_21_1668
*7037 FILLER_21_1670
*7038 FILLER_21_1678
*7039 FILLER_21_1686
*7040 FILLER_21_1694
*7041 FILLER_21_1702
*7042 FILLER_21_1710
*7043 FILLER_21_1718
*7044 FILLER_21_1726
*7045 FILLER_21_1728
*7046 FILLER_21_1730
*7047 FILLER_21_1738
*7048 FILLER_21_1746
*7049 FILLER_21_1754
*7050 FILLER_21_1762
*7051 FILLER_21_1770
*7052 FILLER_21_1778
*7053 FILLER_21_1786
*7054 FILLER_21_1788
*7055 FILLER_21_1790
*7056 FILLER_21_1798
*7057 FILLER_21_1806
*7058 FILLER_21_1814
*7059 FILLER_21_1822
*7060 FILLER_21_1830
*7061 FILLER_21_1838
*7062 FILLER_21_1846
*7063 FILLER_21_1848
*7064 FILLER_21_1850
*7065 FILLER_21_1858
*7066 FILLER_21_1866
*7067 FILLER_21_1874
*7068 FILLER_21_1882
*7069 FILLER_21_1890
*7070 FILLER_21_1898
*7071 FILLER_21_1906
*7072 FILLER_21_1908
*7073 FILLER_21_1910
*7074 FILLER_21_1918
*7075 FILLER_21_1926
*7076 FILLER_21_1934
*7077 FILLER_21_1942
*7078 FILLER_21_1950
*7079 FILLER_21_1958
*7080 FILLER_21_1966
*7081 FILLER_21_1968
*7082 FILLER_21_1970
*7083 FILLER_21_1978
*7084 FILLER_21_1986
*7085 FILLER_21_1994
*7086 FILLER_21_2002
*7087 FILLER_21_2010
*7088 FILLER_21_2018
*7089 FILLER_21_2026
*7090 FILLER_21_2028
*7091 FILLER_21_2030
*7092 FILLER_21_2038
*7093 FILLER_21_2046
*7094 FILLER_21_2054
*7095 FILLER_21_2062
*7096 FILLER_21_2070
*7097 FILLER_21_2078
*7098 FILLER_21_2086
*7099 FILLER_21_2088
*7100 FILLER_21_2090
*7101 FILLER_21_2098
*7102 FILLER_21_2106
*7103 FILLER_21_2114
*7104 FILLER_21_2122
*7016 FILLER_21_24
*7017 FILLER_21_32
*7018 FILLER_21_36
*7019 FILLER_21_38
*7014 FILLER_21_8
*7105 FILLER_22_0
*7111 FILLER_22_1549
*7112 FILLER_22_1557
*7113 FILLER_22_1565
*7114 FILLER_22_1573
*7115 FILLER_22_1577
*7116 FILLER_22_1580
*7117 FILLER_22_1588
*7118 FILLER_22_1596
*7107 FILLER_22_16
*7119 FILLER_22_1604
*7120 FILLER_22_1612
*7121 FILLER_22_1620
*7122 FILLER_22_1628
*7123 FILLER_22_1636
*7124 FILLER_22_1638
*7125 FILLER_22_1640
*7126 FILLER_22_1648
*7127 FILLER_22_1656
*7128 FILLER_22_1664
*7129 FILLER_22_1672
*7130 FILLER_22_1680
*7131 FILLER_22_1688
*7132 FILLER_22_1696
*7133 FILLER_22_1698
*7134 FILLER_22_1700
*7135 FILLER_22_1708
*7136 FILLER_22_1716
*7137 FILLER_22_1724
*7138 FILLER_22_1732
*7139 FILLER_22_1740
*7140 FILLER_22_1748
*7141 FILLER_22_1756
*7142 FILLER_22_1758
*7143 FILLER_22_1760
*7144 FILLER_22_1768
*7145 FILLER_22_1776
*7146 FILLER_22_1784
*7147 FILLER_22_1792
*7148 FILLER_22_1800
*7149 FILLER_22_1808
*7150 FILLER_22_1816
*7151 FILLER_22_1818
*7152 FILLER_22_1820
*7153 FILLER_22_1828
*7154 FILLER_22_1836
*7155 FILLER_22_1844
*7156 FILLER_22_1852
*7157 FILLER_22_1860
*7158 FILLER_22_1868
*7159 FILLER_22_1876
*7160 FILLER_22_1878
*7161 FILLER_22_1880
*7162 FILLER_22_1888
*7163 FILLER_22_1896
*7164 FILLER_22_1904
*7165 FILLER_22_1912
*7166 FILLER_22_1920
*7167 FILLER_22_1928
*7168 FILLER_22_1936
*7169 FILLER_22_1938
*7170 FILLER_22_1940
*7171 FILLER_22_1948
*7172 FILLER_22_1956
*7173 FILLER_22_1964
*7174 FILLER_22_1972
*7175 FILLER_22_1980
*7176 FILLER_22_1988
*7177 FILLER_22_1996
*7178 FILLER_22_1998
*7179 FILLER_22_2000
*7180 FILLER_22_2008
*7181 FILLER_22_2016
*7182 FILLER_22_2024
*7183 FILLER_22_2032
*7184 FILLER_22_2040
*7185 FILLER_22_2048
*7186 FILLER_22_2056
*7187 FILLER_22_2058
*7188 FILLER_22_2060
*7189 FILLER_22_2068
*7190 FILLER_22_2076
*7191 FILLER_22_2084
*7192 FILLER_22_2092
*7193 FILLER_22_2100
*7194 FILLER_22_2108
*7195 FILLER_22_2116
*7196 FILLER_22_2118
*7197 FILLER_22_2120
*7198 FILLER_22_2128
*7108 FILLER_22_24
*7109 FILLER_22_28
*7110 FILLER_22_31
*7106 FILLER_22_8
*7199 FILLER_23_0
*7206 FILLER_23_1549
*7207 FILLER_23_1557
*7208 FILLER_23_1565
*7209 FILLER_23_1573
*7210 FILLER_23_1581
*7211 FILLER_23_1589
*7212 FILLER_23_1597
*7201 FILLER_23_16
*7213 FILLER_23_1605
*7214 FILLER_23_1610
*7215 FILLER_23_1618
*7216 FILLER_23_1626
*7217 FILLER_23_1634
*7218 FILLER_23_1642
*7219 FILLER_23_1650
*7220 FILLER_23_1658
*7221 FILLER_23_1666
*7222 FILLER_23_1668
*7223 FILLER_23_1670
*7224 FILLER_23_1678
*7225 FILLER_23_1686
*7226 FILLER_23_1694
*7227 FILLER_23_1702
*7228 FILLER_23_1710
*7229 FILLER_23_1718
*7230 FILLER_23_1726
*7231 FILLER_23_1728
*7232 FILLER_23_1730
*7233 FILLER_23_1738
*7234 FILLER_23_1746
*7235 FILLER_23_1754
*7236 FILLER_23_1762
*7237 FILLER_23_1770
*7238 FILLER_23_1778
*7239 FILLER_23_1786
*7240 FILLER_23_1788
*7241 FILLER_23_1790
*7242 FILLER_23_1798
*7243 FILLER_23_1806
*7244 FILLER_23_1814
*7245 FILLER_23_1822
*7246 FILLER_23_1830
*7247 FILLER_23_1838
*7248 FILLER_23_1846
*7249 FILLER_23_1848
*7250 FILLER_23_1850
*7251 FILLER_23_1858
*7252 FILLER_23_1866
*7253 FILLER_23_1874
*7254 FILLER_23_1882
*7255 FILLER_23_1890
*7256 FILLER_23_1898
*7257 FILLER_23_1906
*7258 FILLER_23_1908
*7259 FILLER_23_1910
*7260 FILLER_23_1918
*7261 FILLER_23_1926
*7262 FILLER_23_1934
*7263 FILLER_23_1942
*7264 FILLER_23_1950
*7265 FILLER_23_1958
*7266 FILLER_23_1966
*7267 FILLER_23_1968
*7268 FILLER_23_1970
*7269 FILLER_23_1978
*7270 FILLER_23_1986
*7271 FILLER_23_1994
*7272 FILLER_23_2002
*7273 FILLER_23_2010
*7274 FILLER_23_2018
*7275 FILLER_23_2026
*7276 FILLER_23_2028
*7277 FILLER_23_2030
*7278 FILLER_23_2038
*7279 FILLER_23_2046
*7280 FILLER_23_2054
*7281 FILLER_23_2062
*7282 FILLER_23_2070
*7283 FILLER_23_2078
*7284 FILLER_23_2086
*7285 FILLER_23_2088
*7286 FILLER_23_2090
*7287 FILLER_23_2098
*7288 FILLER_23_2106
*7289 FILLER_23_2114
*7290 FILLER_23_2122
*7202 FILLER_23_24
*7203 FILLER_23_32
*7204 FILLER_23_36
*7205 FILLER_23_38
*7200 FILLER_23_8
*7291 FILLER_24_0
*7297 FILLER_24_1549
*7298 FILLER_24_1557
*7299 FILLER_24_1565
*7300 FILLER_24_1573
*7301 FILLER_24_1577
*7302 FILLER_24_1580
*7303 FILLER_24_1588
*7304 FILLER_24_1596
*7293 FILLER_24_16
*7305 FILLER_24_1604
*7306 FILLER_24_1612
*7307 FILLER_24_1620
*7308 FILLER_24_1628
*7309 FILLER_24_1636
*7310 FILLER_24_1638
*7311 FILLER_24_1640
*7312 FILLER_24_1648
*7313 FILLER_24_1656
*7314 FILLER_24_1664
*7315 FILLER_24_1672
*7316 FILLER_24_1680
*7317 FILLER_24_1688
*7318 FILLER_24_1696
*7319 FILLER_24_1698
*7320 FILLER_24_1700
*7321 FILLER_24_1708
*7322 FILLER_24_1716
*7323 FILLER_24_1724
*7324 FILLER_24_1732
*7325 FILLER_24_1740
*7326 FILLER_24_1748
*7327 FILLER_24_1756
*7328 FILLER_24_1758
*7329 FILLER_24_1760
*7330 FILLER_24_1768
*7331 FILLER_24_1776
*7332 FILLER_24_1784
*7333 FILLER_24_1792
*7334 FILLER_24_1800
*7335 FILLER_24_1808
*7336 FILLER_24_1816
*7337 FILLER_24_1818
*7338 FILLER_24_1820
*7339 FILLER_24_1828
*7340 FILLER_24_1836
*7341 FILLER_24_1844
*7342 FILLER_24_1852
*7343 FILLER_24_1860
*7344 FILLER_24_1868
*7345 FILLER_24_1876
*7346 FILLER_24_1878
*7347 FILLER_24_1880
*7348 FILLER_24_1888
*7349 FILLER_24_1896
*7350 FILLER_24_1904
*7351 FILLER_24_1912
*7352 FILLER_24_1920
*7353 FILLER_24_1928
*7354 FILLER_24_1936
*7355 FILLER_24_1938
*7356 FILLER_24_1940
*7357 FILLER_24_1948
*7358 FILLER_24_1956
*7359 FILLER_24_1964
*7360 FILLER_24_1972
*7361 FILLER_24_1980
*7362 FILLER_24_1988
*7363 FILLER_24_1996
*7364 FILLER_24_1998
*7365 FILLER_24_2000
*7366 FILLER_24_2008
*7367 FILLER_24_2016
*7368 FILLER_24_2024
*7369 FILLER_24_2032
*7370 FILLER_24_2040
*7371 FILLER_24_2048
*7372 FILLER_24_2056
*7373 FILLER_24_2058
*7374 FILLER_24_2060
*7375 FILLER_24_2068
*7376 FILLER_24_2076
*7377 FILLER_24_2084
*7378 FILLER_24_2092
*7379 FILLER_24_2100
*7380 FILLER_24_2108
*7381 FILLER_24_2116
*7382 FILLER_24_2118
*7383 FILLER_24_2120
*7384 FILLER_24_2128
*7294 FILLER_24_24
*7295 FILLER_24_28
*7296 FILLER_24_31
*7292 FILLER_24_8
*7385 FILLER_25_0
*7392 FILLER_25_1549
*7393 FILLER_25_1557
*7394 FILLER_25_1565
*7395 FILLER_25_1573
*7396 FILLER_25_1581
*7397 FILLER_25_1589
*7398 FILLER_25_1597
*7387 FILLER_25_16
*7399 FILLER_25_1605
*7400 FILLER_25_1610
*7401 FILLER_25_1618
*7402 FILLER_25_1626
*7403 FILLER_25_1634
*7404 FILLER_25_1642
*7405 FILLER_25_1650
*7406 FILLER_25_1658
*7407 FILLER_25_1666
*7408 FILLER_25_1668
*7409 FILLER_25_1670
*7410 FILLER_25_1678
*7411 FILLER_25_1686
*7412 FILLER_25_1694
*7413 FILLER_25_1702
*7414 FILLER_25_1710
*7415 FILLER_25_1718
*7416 FILLER_25_1726
*7417 FILLER_25_1728
*7418 FILLER_25_1730
*7419 FILLER_25_1738
*7420 FILLER_25_1746
*7421 FILLER_25_1754
*7422 FILLER_25_1762
*7423 FILLER_25_1770
*7424 FILLER_25_1778
*7425 FILLER_25_1786
*7426 FILLER_25_1788
*7427 FILLER_25_1790
*7428 FILLER_25_1798
*7429 FILLER_25_1806
*7430 FILLER_25_1814
*7431 FILLER_25_1822
*7432 FILLER_25_1830
*7433 FILLER_25_1838
*7434 FILLER_25_1846
*7435 FILLER_25_1848
*7436 FILLER_25_1850
*7437 FILLER_25_1858
*7438 FILLER_25_1866
*7439 FILLER_25_1874
*7440 FILLER_25_1882
*7441 FILLER_25_1890
*7442 FILLER_25_1898
*7443 FILLER_25_1906
*7444 FILLER_25_1908
*7445 FILLER_25_1910
*7446 FILLER_25_1918
*7447 FILLER_25_1926
*7448 FILLER_25_1934
*7449 FILLER_25_1942
*7450 FILLER_25_1950
*7451 FILLER_25_1958
*7452 FILLER_25_1966
*7453 FILLER_25_1968
*7454 FILLER_25_1970
*7455 FILLER_25_1978
*7456 FILLER_25_1986
*7457 FILLER_25_1994
*7458 FILLER_25_2002
*7459 FILLER_25_2010
*7460 FILLER_25_2018
*7461 FILLER_25_2026
*7462 FILLER_25_2028
*7463 FILLER_25_2030
*7464 FILLER_25_2038
*7465 FILLER_25_2046
*7466 FILLER_25_2054
*7467 FILLER_25_2062
*7468 FILLER_25_2070
*7469 FILLER_25_2078
*7470 FILLER_25_2086
*7471 FILLER_25_2088
*7472 FILLER_25_2090
*7473 FILLER_25_2098
*7474 FILLER_25_2106
*7475 FILLER_25_2114
*7476 FILLER_25_2122
*7388 FILLER_25_24
*7389 FILLER_25_32
*7390 FILLER_25_36
*7391 FILLER_25_38
*7386 FILLER_25_8
*7477 FILLER_26_0
*7483 FILLER_26_1549
*7484 FILLER_26_1557
*7485 FILLER_26_1565
*7486 FILLER_26_1573
*7487 FILLER_26_1577
*7488 FILLER_26_1580
*7489 FILLER_26_1588
*7490 FILLER_26_1596
*7479 FILLER_26_16
*7491 FILLER_26_1604
*7492 FILLER_26_1612
*7493 FILLER_26_1620
*7494 FILLER_26_1628
*7495 FILLER_26_1636
*7496 FILLER_26_1638
*7497 FILLER_26_1640
*7498 FILLER_26_1648
*7499 FILLER_26_1656
*7500 FILLER_26_1664
*7501 FILLER_26_1672
*7502 FILLER_26_1680
*7503 FILLER_26_1688
*7504 FILLER_26_1696
*7505 FILLER_26_1698
*7506 FILLER_26_1700
*7507 FILLER_26_1708
*7508 FILLER_26_1716
*7509 FILLER_26_1724
*7510 FILLER_26_1732
*7511 FILLER_26_1740
*7512 FILLER_26_1748
*7513 FILLER_26_1756
*7514 FILLER_26_1758
*7515 FILLER_26_1760
*7516 FILLER_26_1768
*7517 FILLER_26_1776
*7518 FILLER_26_1784
*7519 FILLER_26_1792
*7520 FILLER_26_1800
*7521 FILLER_26_1808
*7522 FILLER_26_1816
*7523 FILLER_26_1818
*7524 FILLER_26_1820
*7525 FILLER_26_1828
*7526 FILLER_26_1836
*7527 FILLER_26_1844
*7528 FILLER_26_1852
*7529 FILLER_26_1860
*7530 FILLER_26_1868
*7531 FILLER_26_1876
*7532 FILLER_26_1878
*7533 FILLER_26_1880
*7534 FILLER_26_1888
*7535 FILLER_26_1896
*7536 FILLER_26_1904
*7537 FILLER_26_1912
*7538 FILLER_26_1920
*7539 FILLER_26_1928
*7540 FILLER_26_1936
*7541 FILLER_26_1938
*7542 FILLER_26_1940
*7543 FILLER_26_1948
*7544 FILLER_26_1956
*7545 FILLER_26_1964
*7546 FILLER_26_1972
*7547 FILLER_26_1980
*7548 FILLER_26_1988
*7549 FILLER_26_1996
*7550 FILLER_26_1998
*7551 FILLER_26_2000
*7552 FILLER_26_2008
*7553 FILLER_26_2016
*7554 FILLER_26_2024
*7555 FILLER_26_2032
*7556 FILLER_26_2040
*7557 FILLER_26_2048
*7558 FILLER_26_2056
*7559 FILLER_26_2058
*7560 FILLER_26_2060
*7561 FILLER_26_2068
*7562 FILLER_26_2076
*7563 FILLER_26_2084
*7564 FILLER_26_2092
*7565 FILLER_26_2100
*7566 FILLER_26_2108
*7567 FILLER_26_2116
*7568 FILLER_26_2118
*7569 FILLER_26_2120
*7570 FILLER_26_2128
*7480 FILLER_26_24
*7481 FILLER_26_28
*7482 FILLER_26_31
*7478 FILLER_26_8
*7571 FILLER_27_0
*7578 FILLER_27_1549
*7579 FILLER_27_1557
*7580 FILLER_27_1565
*7581 FILLER_27_1573
*7582 FILLER_27_1581
*7583 FILLER_27_1589
*7584 FILLER_27_1597
*7573 FILLER_27_16
*7585 FILLER_27_1605
*7586 FILLER_27_1610
*7587 FILLER_27_1618
*7588 FILLER_27_1626
*7589 FILLER_27_1634
*7590 FILLER_27_1642
*7591 FILLER_27_1650
*7592 FILLER_27_1658
*7593 FILLER_27_1666
*7594 FILLER_27_1668
*7595 FILLER_27_1670
*7596 FILLER_27_1678
*7597 FILLER_27_1686
*7598 FILLER_27_1694
*7599 FILLER_27_1702
*7600 FILLER_27_1710
*7601 FILLER_27_1718
*7602 FILLER_27_1726
*7603 FILLER_27_1728
*7604 FILLER_27_1730
*7605 FILLER_27_1738
*7606 FILLER_27_1746
*7607 FILLER_27_1754
*7608 FILLER_27_1762
*7609 FILLER_27_1770
*7610 FILLER_27_1778
*7611 FILLER_27_1786
*7612 FILLER_27_1788
*7613 FILLER_27_1790
*7614 FILLER_27_1798
*7615 FILLER_27_1806
*7616 FILLER_27_1814
*7617 FILLER_27_1822
*7618 FILLER_27_1830
*7619 FILLER_27_1838
*7620 FILLER_27_1846
*7621 FILLER_27_1848
*7622 FILLER_27_1850
*7623 FILLER_27_1858
*7624 FILLER_27_1866
*7625 FILLER_27_1874
*7626 FILLER_27_1882
*7627 FILLER_27_1890
*7628 FILLER_27_1898
*7629 FILLER_27_1906
*7630 FILLER_27_1908
*7631 FILLER_27_1910
*7632 FILLER_27_1918
*7633 FILLER_27_1926
*7634 FILLER_27_1934
*7635 FILLER_27_1942
*7636 FILLER_27_1950
*7637 FILLER_27_1958
*7638 FILLER_27_1966
*7639 FILLER_27_1968
*7640 FILLER_27_1970
*7641 FILLER_27_1978
*7642 FILLER_27_1986
*7643 FILLER_27_1994
*7644 FILLER_27_2002
*7645 FILLER_27_2010
*7646 FILLER_27_2018
*7647 FILLER_27_2026
*7648 FILLER_27_2028
*7649 FILLER_27_2030
*7650 FILLER_27_2038
*7651 FILLER_27_2046
*7652 FILLER_27_2054
*7653 FILLER_27_2062
*7654 FILLER_27_2070
*7655 FILLER_27_2078
*7656 FILLER_27_2086
*7657 FILLER_27_2088
*7658 FILLER_27_2090
*7659 FILLER_27_2098
*7660 FILLER_27_2106
*7661 FILLER_27_2114
*7662 FILLER_27_2122
*7574 FILLER_27_24
*7575 FILLER_27_32
*7576 FILLER_27_36
*7577 FILLER_27_38
*7572 FILLER_27_8
*7663 FILLER_28_0
*7669 FILLER_28_1549
*7670 FILLER_28_1557
*7671 FILLER_28_1565
*7672 FILLER_28_1573
*7673 FILLER_28_1577
*7674 FILLER_28_1580
*7675 FILLER_28_1588
*7676 FILLER_28_1596
*7665 FILLER_28_16
*7677 FILLER_28_1604
*7678 FILLER_28_1612
*7679 FILLER_28_1620
*7680 FILLER_28_1628
*7681 FILLER_28_1636
*7682 FILLER_28_1638
*7683 FILLER_28_1640
*7684 FILLER_28_1648
*7685 FILLER_28_1656
*7686 FILLER_28_1664
*7687 FILLER_28_1672
*7688 FILLER_28_1680
*7689 FILLER_28_1688
*7690 FILLER_28_1696
*7691 FILLER_28_1698
*7692 FILLER_28_1700
*7693 FILLER_28_1708
*7694 FILLER_28_1716
*7695 FILLER_28_1724
*7696 FILLER_28_1732
*7697 FILLER_28_1740
*7698 FILLER_28_1748
*7699 FILLER_28_1756
*7700 FILLER_28_1758
*7701 FILLER_28_1760
*7702 FILLER_28_1768
*7703 FILLER_28_1776
*7704 FILLER_28_1784
*7705 FILLER_28_1792
*7706 FILLER_28_1800
*7707 FILLER_28_1808
*7708 FILLER_28_1816
*7709 FILLER_28_1818
*7710 FILLER_28_1820
*7711 FILLER_28_1828
*7712 FILLER_28_1836
*7713 FILLER_28_1844
*7714 FILLER_28_1852
*7715 FILLER_28_1860
*7716 FILLER_28_1868
*7717 FILLER_28_1876
*7718 FILLER_28_1878
*7719 FILLER_28_1880
*7720 FILLER_28_1888
*7721 FILLER_28_1896
*7722 FILLER_28_1904
*7723 FILLER_28_1912
*7724 FILLER_28_1920
*7725 FILLER_28_1928
*7726 FILLER_28_1936
*7727 FILLER_28_1938
*7728 FILLER_28_1940
*7729 FILLER_28_1948
*7730 FILLER_28_1956
*7731 FILLER_28_1964
*7732 FILLER_28_1972
*7733 FILLER_28_1980
*7734 FILLER_28_1988
*7735 FILLER_28_1996
*7736 FILLER_28_1998
*7737 FILLER_28_2000
*7738 FILLER_28_2008
*7739 FILLER_28_2016
*7740 FILLER_28_2024
*7741 FILLER_28_2032
*7742 FILLER_28_2040
*7743 FILLER_28_2048
*7744 FILLER_28_2056
*7745 FILLER_28_2058
*7746 FILLER_28_2060
*7747 FILLER_28_2068
*7748 FILLER_28_2076
*7749 FILLER_28_2084
*7750 FILLER_28_2092
*7751 FILLER_28_2100
*7752 FILLER_28_2108
*7753 FILLER_28_2116
*7754 FILLER_28_2118
*7755 FILLER_28_2120
*7756 FILLER_28_2128
*7666 FILLER_28_24
*7667 FILLER_28_28
*7668 FILLER_28_31
*7664 FILLER_28_8
*7757 FILLER_29_0
*7764 FILLER_29_1549
*7765 FILLER_29_1557
*7766 FILLER_29_1565
*7767 FILLER_29_1573
*7768 FILLER_29_1581
*7769 FILLER_29_1589
*7770 FILLER_29_1597
*7759 FILLER_29_16
*7771 FILLER_29_1605
*7772 FILLER_29_1610
*7773 FILLER_29_1618
*7774 FILLER_29_1626
*7775 FILLER_29_1634
*7776 FILLER_29_1642
*7777 FILLER_29_1650
*7778 FILLER_29_1658
*7779 FILLER_29_1666
*7780 FILLER_29_1668
*7781 FILLER_29_1670
*7782 FILLER_29_1678
*7783 FILLER_29_1686
*7784 FILLER_29_1694
*7785 FILLER_29_1702
*7786 FILLER_29_1710
*7787 FILLER_29_1718
*7788 FILLER_29_1726
*7789 FILLER_29_1728
*7790 FILLER_29_1730
*7791 FILLER_29_1738
*7792 FILLER_29_1746
*7793 FILLER_29_1754
*7794 FILLER_29_1762
*7795 FILLER_29_1770
*7796 FILLER_29_1778
*7797 FILLER_29_1786
*7798 FILLER_29_1788
*7799 FILLER_29_1790
*7800 FILLER_29_1798
*7801 FILLER_29_1806
*7802 FILLER_29_1814
*7803 FILLER_29_1822
*7804 FILLER_29_1830
*7805 FILLER_29_1838
*7806 FILLER_29_1846
*7807 FILLER_29_1848
*7808 FILLER_29_1850
*7809 FILLER_29_1858
*7810 FILLER_29_1866
*7811 FILLER_29_1874
*7812 FILLER_29_1882
*7813 FILLER_29_1890
*7814 FILLER_29_1898
*7815 FILLER_29_1906
*7816 FILLER_29_1908
*7817 FILLER_29_1910
*7818 FILLER_29_1918
*7819 FILLER_29_1926
*7820 FILLER_29_1934
*7821 FILLER_29_1942
*7822 FILLER_29_1950
*7823 FILLER_29_1958
*7824 FILLER_29_1966
*7825 FILLER_29_1968
*7826 FILLER_29_1970
*7827 FILLER_29_1978
*7828 FILLER_29_1986
*7829 FILLER_29_1994
*7830 FILLER_29_2002
*7831 FILLER_29_2010
*7832 FILLER_29_2018
*7833 FILLER_29_2026
*7834 FILLER_29_2028
*7835 FILLER_29_2030
*7836 FILLER_29_2038
*7837 FILLER_29_2046
*7838 FILLER_29_2054
*7839 FILLER_29_2062
*7840 FILLER_29_2070
*7841 FILLER_29_2078
*7842 FILLER_29_2086
*7843 FILLER_29_2088
*7844 FILLER_29_2090
*7845 FILLER_29_2098
*7846 FILLER_29_2106
*7847 FILLER_29_2114
*7848 FILLER_29_2122
*7760 FILLER_29_24
*7761 FILLER_29_32
*7762 FILLER_29_36
*7763 FILLER_29_38
*7758 FILLER_29_8
*4303 FILLER_2_0
*4454 FILLER_2_1007
*4455 FILLER_2_1015
*4456 FILLER_2_1023
*4457 FILLER_2_1031
*4458 FILLER_2_1039
*4459 FILLER_2_1047
*4460 FILLER_2_1049
*4461 FILLER_2_1051
*4462 FILLER_2_1059
*4463 FILLER_2_1067
*4319 FILLER_2_107
*4464 FILLER_2_1075
*4465 FILLER_2_1083
*4466 FILLER_2_1091
*4467 FILLER_2_1099
*4468 FILLER_2_1107
*4469 FILLER_2_1109
*4470 FILLER_2_1111
*4471 FILLER_2_1119
*4472 FILLER_2_1127
*4473 FILLER_2_1135
*4474 FILLER_2_1143
*4320 FILLER_2_115
*4475 FILLER_2_1151
*4476 FILLER_2_1159
*4477 FILLER_2_1167
*4478 FILLER_2_1169
*4479 FILLER_2_1171
*4480 FILLER_2_1179
*4481 FILLER_2_1187
*4482 FILLER_2_1195
*4483 FILLER_2_1203
*4484 FILLER_2_1211
*4485 FILLER_2_1219
*4486 FILLER_2_1227
*4487 FILLER_2_1229
*4321 FILLER_2_123
*4488 FILLER_2_1231
*4489 FILLER_2_1239
*4490 FILLER_2_1247
*4491 FILLER_2_1255
*4492 FILLER_2_1263
*4493 FILLER_2_1271
*4494 FILLER_2_1279
*4495 FILLER_2_1287
*4496 FILLER_2_1289
*4497 FILLER_2_1291
*4498 FILLER_2_1299
*4499 FILLER_2_1307
*4322 FILLER_2_131
*4500 FILLER_2_1315
*4501 FILLER_2_1323
*4502 FILLER_2_1331
*4503 FILLER_2_1339
*4504 FILLER_2_1347
*4505 FILLER_2_1349
*4506 FILLER_2_1351
*4507 FILLER_2_1359
*4508 FILLER_2_1367
*4509 FILLER_2_1375
*4510 FILLER_2_1383
*4323 FILLER_2_139
*4511 FILLER_2_1391
*4512 FILLER_2_1399
*4513 FILLER_2_1407
*4514 FILLER_2_1409
*4515 FILLER_2_1411
*4516 FILLER_2_1419
*4517 FILLER_2_1427
*4518 FILLER_2_1435
*4519 FILLER_2_1443
*4520 FILLER_2_1451
*4521 FILLER_2_1459
*4522 FILLER_2_1467
*4523 FILLER_2_1469
*4324 FILLER_2_147
*4524 FILLER_2_1471
*4525 FILLER_2_1479
*4526 FILLER_2_1487
*4325 FILLER_2_149
*4527 FILLER_2_1495
*4528 FILLER_2_1503
*4326 FILLER_2_151
*4529 FILLER_2_1511
*4530 FILLER_2_1519
*4531 FILLER_2_1527
*4532 FILLER_2_1529
*4533 FILLER_2_1531
*4534 FILLER_2_1539
*4535 FILLER_2_1547
*4536 FILLER_2_1555
*4537 FILLER_2_1563
*4538 FILLER_2_1571
*4539 FILLER_2_1579
*4540 FILLER_2_1587
*4541 FILLER_2_1589
*4327 FILLER_2_159
*4542 FILLER_2_1591
*4543 FILLER_2_1599
*4305 FILLER_2_16
*4544 FILLER_2_1607
*4545 FILLER_2_1615
*4546 FILLER_2_1623
*4547 FILLER_2_1631
*4548 FILLER_2_1639
*4549 FILLER_2_1647
*4550 FILLER_2_1649
*4551 FILLER_2_1651
*4552 FILLER_2_1659
*4553 FILLER_2_1667
*4328 FILLER_2_167
*4554 FILLER_2_1675
*4555 FILLER_2_1683
*4556 FILLER_2_1691
*4557 FILLER_2_1699
*4558 FILLER_2_1707
*4559 FILLER_2_1709
*4560 FILLER_2_1711
*4561 FILLER_2_1719
*4562 FILLER_2_1727
*4563 FILLER_2_1735
*4564 FILLER_2_1743
*4329 FILLER_2_175
*4565 FILLER_2_1751
*4566 FILLER_2_1759
*4567 FILLER_2_1767
*4568 FILLER_2_1769
*4569 FILLER_2_1771
*4570 FILLER_2_1779
*4571 FILLER_2_1787
*4572 FILLER_2_1795
*4573 FILLER_2_1803
*4574 FILLER_2_1811
*4575 FILLER_2_1819
*4576 FILLER_2_1827
*4577 FILLER_2_1829
*4330 FILLER_2_183
*4578 FILLER_2_1831
*4579 FILLER_2_1839
*4580 FILLER_2_1847
*4581 FILLER_2_1855
*4582 FILLER_2_1863
*4583 FILLER_2_1871
*4584 FILLER_2_1879
*4585 FILLER_2_1887
*4586 FILLER_2_1889
*4587 FILLER_2_1891
*4588 FILLER_2_1899
*4589 FILLER_2_1907
*4331 FILLER_2_191
*4590 FILLER_2_1915
*4591 FILLER_2_1923
*4592 FILLER_2_1931
*4593 FILLER_2_1939
*4594 FILLER_2_1947
*4595 FILLER_2_1949
*4596 FILLER_2_1951
*4597 FILLER_2_1959
*4598 FILLER_2_1967
*4599 FILLER_2_1975
*4600 FILLER_2_1983
*4332 FILLER_2_199
*4601 FILLER_2_1991
*4602 FILLER_2_1999
*4603 FILLER_2_2007
*4604 FILLER_2_2009
*4605 FILLER_2_2011
*4606 FILLER_2_2019
*4607 FILLER_2_2027
*4608 FILLER_2_2035
*4609 FILLER_2_2043
*4610 FILLER_2_2051
*4611 FILLER_2_2059
*4612 FILLER_2_2067
*4613 FILLER_2_2069
*4333 FILLER_2_207
*4614 FILLER_2_2071
*4615 FILLER_2_2079
*4616 FILLER_2_2087
*4334 FILLER_2_209
*4617 FILLER_2_2095
*4618 FILLER_2_2103
*4335 FILLER_2_211
*4619 FILLER_2_2111
*4620 FILLER_2_2119
*4621 FILLER_2_2127
*4622 FILLER_2_2129
*4336 FILLER_2_219
*4337 FILLER_2_227
*4338 FILLER_2_235
*4306 FILLER_2_24
*4339 FILLER_2_243
*4340 FILLER_2_251
*4341 FILLER_2_259
*4342 FILLER_2_267
*4343 FILLER_2_269
*4344 FILLER_2_271
*4345 FILLER_2_279
*4307 FILLER_2_28
*4346 FILLER_2_287
*4347 FILLER_2_295
*4348 FILLER_2_303
*4308 FILLER_2_31
*4349 FILLER_2_311
*4350 FILLER_2_319
*4351 FILLER_2_327
*4352 FILLER_2_329
*4353 FILLER_2_331
*4354 FILLER_2_339
*4355 FILLER_2_347
*4356 FILLER_2_355
*4357 FILLER_2_363
*4358 FILLER_2_371
*4359 FILLER_2_379
*4360 FILLER_2_387
*4361 FILLER_2_389
*4309 FILLER_2_39
*4362 FILLER_2_391
*4363 FILLER_2_399
*4364 FILLER_2_407
*4365 FILLER_2_415
*4366 FILLER_2_423
*4367 FILLER_2_431
*4368 FILLER_2_439
*4369 FILLER_2_447
*4370 FILLER_2_449
*4371 FILLER_2_451
*4372 FILLER_2_459
*4373 FILLER_2_467
*4310 FILLER_2_47
*4374 FILLER_2_475
*4375 FILLER_2_483
*4376 FILLER_2_491
*4377 FILLER_2_499
*4378 FILLER_2_507
*4379 FILLER_2_509
*4380 FILLER_2_511
*4381 FILLER_2_519
*4382 FILLER_2_527
*4383 FILLER_2_535
*4384 FILLER_2_543
*4311 FILLER_2_55
*4385 FILLER_2_551
*4386 FILLER_2_559
*4387 FILLER_2_567
*4388 FILLER_2_569
*4389 FILLER_2_571
*4390 FILLER_2_579
*4391 FILLER_2_587
*4392 FILLER_2_595
*4393 FILLER_2_603
*4394 FILLER_2_611
*4395 FILLER_2_619
*4396 FILLER_2_627
*4397 FILLER_2_629
*4312 FILLER_2_63
*4398 FILLER_2_631
*4399 FILLER_2_639
*4400 FILLER_2_647
*4401 FILLER_2_655
*4402 FILLER_2_663
*4403 FILLER_2_671
*4404 FILLER_2_679
*4405 FILLER_2_687
*4406 FILLER_2_689
*4407 FILLER_2_691
*4408 FILLER_2_699
*4409 FILLER_2_707
*4313 FILLER_2_71
*4410 FILLER_2_715
*4411 FILLER_2_723
*4412 FILLER_2_731
*4413 FILLER_2_739
*4414 FILLER_2_747
*4415 FILLER_2_749
*4416 FILLER_2_751
*4417 FILLER_2_759
*4418 FILLER_2_767
*4419 FILLER_2_775
*4420 FILLER_2_783
*4314 FILLER_2_79
*4421 FILLER_2_791
*4422 FILLER_2_799
*4304 FILLER_2_8
*4423 FILLER_2_807
*4424 FILLER_2_809
*4425 FILLER_2_811
*4426 FILLER_2_819
*4427 FILLER_2_827
*4428 FILLER_2_835
*4429 FILLER_2_843
*4430 FILLER_2_851
*4431 FILLER_2_859
*4432 FILLER_2_867
*4433 FILLER_2_869
*4315 FILLER_2_87
*4434 FILLER_2_871
*4435 FILLER_2_879
*4436 FILLER_2_887
*4316 FILLER_2_89
*4437 FILLER_2_895
*4438 FILLER_2_903
*4317 FILLER_2_91
*4439 FILLER_2_911
*4440 FILLER_2_919
*4441 FILLER_2_927
*4442 FILLER_2_929
*4443 FILLER_2_931
*4444 FILLER_2_939
*4445 FILLER_2_947
*4446 FILLER_2_955
*4447 FILLER_2_963
*4448 FILLER_2_971
*4449 FILLER_2_979
*4450 FILLER_2_987
*4451 FILLER_2_989
*4318 FILLER_2_99
*4452 FILLER_2_991
*4453 FILLER_2_999
*7849 FILLER_30_0
*7855 FILLER_30_1549
*7856 FILLER_30_1557
*7857 FILLER_30_1565
*7858 FILLER_30_1573
*7859 FILLER_30_1577
*7860 FILLER_30_1580
*7861 FILLER_30_1588
*7862 FILLER_30_1596
*7851 FILLER_30_16
*7863 FILLER_30_1604
*7864 FILLER_30_1612
*7865 FILLER_30_1620
*7866 FILLER_30_1628
*7867 FILLER_30_1636
*7868 FILLER_30_1638
*7869 FILLER_30_1640
*7870 FILLER_30_1648
*7871 FILLER_30_1656
*7872 FILLER_30_1664
*7873 FILLER_30_1672
*7874 FILLER_30_1680
*7875 FILLER_30_1688
*7876 FILLER_30_1696
*7877 FILLER_30_1698
*7878 FILLER_30_1700
*7879 FILLER_30_1708
*7880 FILLER_30_1716
*7881 FILLER_30_1724
*7882 FILLER_30_1732
*7883 FILLER_30_1740
*7884 FILLER_30_1748
*7885 FILLER_30_1756
*7886 FILLER_30_1758
*7887 FILLER_30_1760
*7888 FILLER_30_1768
*7889 FILLER_30_1776
*7890 FILLER_30_1784
*7891 FILLER_30_1792
*7892 FILLER_30_1800
*7893 FILLER_30_1808
*7894 FILLER_30_1816
*7895 FILLER_30_1818
*7896 FILLER_30_1820
*7897 FILLER_30_1828
*7898 FILLER_30_1836
*7899 FILLER_30_1844
*7900 FILLER_30_1852
*7901 FILLER_30_1860
*7902 FILLER_30_1868
*7903 FILLER_30_1876
*7904 FILLER_30_1878
*7905 FILLER_30_1880
*7906 FILLER_30_1888
*7907 FILLER_30_1896
*7908 FILLER_30_1904
*7909 FILLER_30_1912
*7910 FILLER_30_1920
*7911 FILLER_30_1928
*7912 FILLER_30_1936
*7913 FILLER_30_1938
*7914 FILLER_30_1940
*7915 FILLER_30_1948
*7916 FILLER_30_1956
*7917 FILLER_30_1964
*7918 FILLER_30_1972
*7919 FILLER_30_1980
*7920 FILLER_30_1988
*7921 FILLER_30_1996
*7922 FILLER_30_1998
*7923 FILLER_30_2000
*7924 FILLER_30_2008
*7925 FILLER_30_2016
*7926 FILLER_30_2024
*7927 FILLER_30_2032
*7928 FILLER_30_2040
*7929 FILLER_30_2048
*7930 FILLER_30_2056
*7931 FILLER_30_2058
*7932 FILLER_30_2060
*7933 FILLER_30_2068
*7934 FILLER_30_2076
*7935 FILLER_30_2084
*7936 FILLER_30_2092
*7937 FILLER_30_2100
*7938 FILLER_30_2108
*7939 FILLER_30_2116
*7940 FILLER_30_2118
*7941 FILLER_30_2120
*7942 FILLER_30_2128
*7852 FILLER_30_24
*7853 FILLER_30_28
*7854 FILLER_30_31
*7850 FILLER_30_8
*7943 FILLER_31_0
*7950 FILLER_31_1549
*7951 FILLER_31_1557
*7952 FILLER_31_1565
*7953 FILLER_31_1573
*7954 FILLER_31_1581
*7955 FILLER_31_1589
*7956 FILLER_31_1597
*7945 FILLER_31_16
*7957 FILLER_31_1605
*7958 FILLER_31_1610
*7959 FILLER_31_1618
*7960 FILLER_31_1626
*7961 FILLER_31_1634
*7962 FILLER_31_1642
*7963 FILLER_31_1650
*7964 FILLER_31_1658
*7965 FILLER_31_1666
*7966 FILLER_31_1668
*7967 FILLER_31_1670
*7968 FILLER_31_1678
*7969 FILLER_31_1686
*7970 FILLER_31_1694
*7971 FILLER_31_1702
*7972 FILLER_31_1710
*7973 FILLER_31_1718
*7974 FILLER_31_1726
*7975 FILLER_31_1728
*7976 FILLER_31_1730
*7977 FILLER_31_1738
*7978 FILLER_31_1746
*7979 FILLER_31_1754
*7980 FILLER_31_1762
*7981 FILLER_31_1770
*7982 FILLER_31_1778
*7983 FILLER_31_1786
*7984 FILLER_31_1788
*7985 FILLER_31_1790
*7986 FILLER_31_1798
*7987 FILLER_31_1806
*7988 FILLER_31_1814
*7989 FILLER_31_1822
*7990 FILLER_31_1830
*7991 FILLER_31_1838
*7992 FILLER_31_1846
*7993 FILLER_31_1848
*7994 FILLER_31_1850
*7995 FILLER_31_1858
*7996 FILLER_31_1866
*7997 FILLER_31_1874
*7998 FILLER_31_1882
*7999 FILLER_31_1890
*8000 FILLER_31_1898
*8001 FILLER_31_1906
*8002 FILLER_31_1908
*8003 FILLER_31_1910
*8004 FILLER_31_1918
*8005 FILLER_31_1926
*8006 FILLER_31_1934
*8007 FILLER_31_1942
*8008 FILLER_31_1950
*8009 FILLER_31_1958
*8010 FILLER_31_1966
*8011 FILLER_31_1968
*8012 FILLER_31_1970
*8013 FILLER_31_1978
*8014 FILLER_31_1986
*8015 FILLER_31_1994
*8016 FILLER_31_2002
*8017 FILLER_31_2010
*8018 FILLER_31_2018
*8019 FILLER_31_2026
*8020 FILLER_31_2028
*8021 FILLER_31_2030
*8022 FILLER_31_2038
*8023 FILLER_31_2046
*8024 FILLER_31_2054
*8025 FILLER_31_2062
*8026 FILLER_31_2070
*8027 FILLER_31_2078
*8028 FILLER_31_2086
*8029 FILLER_31_2088
*8030 FILLER_31_2090
*8031 FILLER_31_2098
*8032 FILLER_31_2106
*8033 FILLER_31_2114
*8034 FILLER_31_2122
*7946 FILLER_31_24
*7947 FILLER_31_32
*7948 FILLER_31_36
*7949 FILLER_31_38
*7944 FILLER_31_8
*8035 FILLER_32_0
*8041 FILLER_32_1549
*8042 FILLER_32_1557
*8043 FILLER_32_1565
*8044 FILLER_32_1573
*8045 FILLER_32_1577
*8046 FILLER_32_1580
*8047 FILLER_32_1588
*8048 FILLER_32_1596
*8037 FILLER_32_16
*8049 FILLER_32_1604
*8050 FILLER_32_1612
*8051 FILLER_32_1620
*8052 FILLER_32_1628
*8053 FILLER_32_1636
*8054 FILLER_32_1638
*8055 FILLER_32_1640
*8056 FILLER_32_1648
*8057 FILLER_32_1656
*8058 FILLER_32_1664
*8059 FILLER_32_1672
*8060 FILLER_32_1680
*8061 FILLER_32_1688
*8062 FILLER_32_1696
*8063 FILLER_32_1698
*8064 FILLER_32_1700
*8065 FILLER_32_1708
*8066 FILLER_32_1716
*8067 FILLER_32_1724
*8068 FILLER_32_1732
*8069 FILLER_32_1740
*8070 FILLER_32_1748
*8071 FILLER_32_1756
*8072 FILLER_32_1758
*8073 FILLER_32_1760
*8074 FILLER_32_1768
*8075 FILLER_32_1776
*8076 FILLER_32_1784
*8077 FILLER_32_1792
*8078 FILLER_32_1800
*8079 FILLER_32_1808
*8080 FILLER_32_1816
*8081 FILLER_32_1818
*8082 FILLER_32_1820
*8083 FILLER_32_1828
*8084 FILLER_32_1836
*8085 FILLER_32_1844
*8086 FILLER_32_1852
*8087 FILLER_32_1860
*8088 FILLER_32_1868
*8089 FILLER_32_1876
*8090 FILLER_32_1878
*8091 FILLER_32_1880
*8092 FILLER_32_1888
*8093 FILLER_32_1896
*8094 FILLER_32_1904
*8095 FILLER_32_1912
*8096 FILLER_32_1920
*8097 FILLER_32_1928
*8098 FILLER_32_1936
*8099 FILLER_32_1938
*8100 FILLER_32_1940
*8101 FILLER_32_1948
*8102 FILLER_32_1956
*8103 FILLER_32_1964
*8104 FILLER_32_1972
*8105 FILLER_32_1980
*8106 FILLER_32_1988
*8107 FILLER_32_1996
*8108 FILLER_32_1998
*8109 FILLER_32_2000
*8110 FILLER_32_2008
*8111 FILLER_32_2016
*8112 FILLER_32_2024
*8113 FILLER_32_2032
*8114 FILLER_32_2040
*8115 FILLER_32_2048
*8116 FILLER_32_2056
*8117 FILLER_32_2058
*8118 FILLER_32_2060
*8119 FILLER_32_2068
*8120 FILLER_32_2076
*8121 FILLER_32_2084
*8122 FILLER_32_2092
*8123 FILLER_32_2100
*8124 FILLER_32_2108
*8125 FILLER_32_2116
*8126 FILLER_32_2118
*8127 FILLER_32_2120
*8128 FILLER_32_2128
*8038 FILLER_32_24
*8039 FILLER_32_28
*8040 FILLER_32_31
*8036 FILLER_32_8
*8129 FILLER_33_0
*8136 FILLER_33_1549
*8137 FILLER_33_1557
*8138 FILLER_33_1565
*8139 FILLER_33_1573
*8140 FILLER_33_1581
*8141 FILLER_33_1589
*8142 FILLER_33_1597
*8131 FILLER_33_16
*8143 FILLER_33_1605
*8144 FILLER_33_1610
*8145 FILLER_33_1618
*8146 FILLER_33_1626
*8147 FILLER_33_1634
*8148 FILLER_33_1642
*8149 FILLER_33_1650
*8150 FILLER_33_1658
*8151 FILLER_33_1666
*8152 FILLER_33_1668
*8153 FILLER_33_1670
*8154 FILLER_33_1678
*8155 FILLER_33_1686
*8156 FILLER_33_1694
*8157 FILLER_33_1702
*8158 FILLER_33_1710
*8159 FILLER_33_1718
*8160 FILLER_33_1726
*8161 FILLER_33_1728
*8162 FILLER_33_1730
*8163 FILLER_33_1738
*8164 FILLER_33_1746
*8165 FILLER_33_1754
*8166 FILLER_33_1762
*8167 FILLER_33_1770
*8168 FILLER_33_1778
*8169 FILLER_33_1786
*8170 FILLER_33_1788
*8171 FILLER_33_1790
*8172 FILLER_33_1798
*8173 FILLER_33_1806
*8174 FILLER_33_1814
*8175 FILLER_33_1822
*8176 FILLER_33_1830
*8177 FILLER_33_1838
*8178 FILLER_33_1846
*8179 FILLER_33_1848
*8180 FILLER_33_1850
*8181 FILLER_33_1858
*8182 FILLER_33_1866
*8183 FILLER_33_1874
*8184 FILLER_33_1882
*8185 FILLER_33_1890
*8186 FILLER_33_1898
*8187 FILLER_33_1906
*8188 FILLER_33_1908
*8189 FILLER_33_1910
*8190 FILLER_33_1918
*8191 FILLER_33_1926
*8192 FILLER_33_1934
*8193 FILLER_33_1942
*8194 FILLER_33_1950
*8195 FILLER_33_1958
*8196 FILLER_33_1966
*8197 FILLER_33_1968
*8198 FILLER_33_1970
*8199 FILLER_33_1978
*8200 FILLER_33_1986
*8201 FILLER_33_1994
*8202 FILLER_33_2002
*8203 FILLER_33_2010
*8204 FILLER_33_2018
*8205 FILLER_33_2026
*8206 FILLER_33_2028
*8207 FILLER_33_2030
*8208 FILLER_33_2038
*8209 FILLER_33_2046
*8210 FILLER_33_2054
*8211 FILLER_33_2062
*8212 FILLER_33_2070
*8213 FILLER_33_2078
*8214 FILLER_33_2086
*8215 FILLER_33_2088
*8216 FILLER_33_2090
*8217 FILLER_33_2098
*8218 FILLER_33_2106
*8219 FILLER_33_2114
*8220 FILLER_33_2122
*8132 FILLER_33_24
*8133 FILLER_33_32
*8134 FILLER_33_36
*8135 FILLER_33_38
*8130 FILLER_33_8
*8221 FILLER_34_0
*8227 FILLER_34_1549
*8228 FILLER_34_1557
*8229 FILLER_34_1565
*8230 FILLER_34_1573
*8231 FILLER_34_1577
*8232 FILLER_34_1580
*8233 FILLER_34_1588
*8234 FILLER_34_1596
*8223 FILLER_34_16
*8235 FILLER_34_1604
*8236 FILLER_34_1612
*8237 FILLER_34_1620
*8238 FILLER_34_1628
*8239 FILLER_34_1636
*8240 FILLER_34_1638
*8241 FILLER_34_1640
*8242 FILLER_34_1648
*8243 FILLER_34_1656
*8244 FILLER_34_1664
*8245 FILLER_34_1672
*8246 FILLER_34_1680
*8247 FILLER_34_1688
*8248 FILLER_34_1696
*8249 FILLER_34_1698
*8250 FILLER_34_1700
*8251 FILLER_34_1708
*8252 FILLER_34_1716
*8253 FILLER_34_1724
*8254 FILLER_34_1732
*8255 FILLER_34_1740
*8256 FILLER_34_1748
*8257 FILLER_34_1756
*8258 FILLER_34_1758
*8259 FILLER_34_1760
*8260 FILLER_34_1768
*8261 FILLER_34_1776
*8262 FILLER_34_1784
*8263 FILLER_34_1792
*8264 FILLER_34_1800
*8265 FILLER_34_1808
*8266 FILLER_34_1816
*8267 FILLER_34_1818
*8268 FILLER_34_1820
*8269 FILLER_34_1828
*8270 FILLER_34_1836
*8271 FILLER_34_1844
*8272 FILLER_34_1852
*8273 FILLER_34_1860
*8274 FILLER_34_1868
*8275 FILLER_34_1876
*8276 FILLER_34_1878
*8277 FILLER_34_1880
*8278 FILLER_34_1888
*8279 FILLER_34_1896
*8280 FILLER_34_1904
*8281 FILLER_34_1912
*8282 FILLER_34_1920
*8283 FILLER_34_1928
*8284 FILLER_34_1936
*8285 FILLER_34_1938
*8286 FILLER_34_1940
*8287 FILLER_34_1948
*8288 FILLER_34_1956
*8289 FILLER_34_1964
*8290 FILLER_34_1972
*8291 FILLER_34_1980
*8292 FILLER_34_1988
*8293 FILLER_34_1996
*8294 FILLER_34_1998
*8295 FILLER_34_2000
*8296 FILLER_34_2008
*8297 FILLER_34_2016
*8298 FILLER_34_2024
*8299 FILLER_34_2032
*8300 FILLER_34_2040
*8301 FILLER_34_2048
*8302 FILLER_34_2056
*8303 FILLER_34_2058
*8304 FILLER_34_2060
*8305 FILLER_34_2068
*8306 FILLER_34_2076
*8307 FILLER_34_2084
*8308 FILLER_34_2092
*8309 FILLER_34_2100
*8310 FILLER_34_2108
*8311 FILLER_34_2116
*8312 FILLER_34_2118
*8313 FILLER_34_2120
*8314 FILLER_34_2128
*8224 FILLER_34_24
*8225 FILLER_34_28
*8226 FILLER_34_31
*8222 FILLER_34_8
*8315 FILLER_35_0
*8322 FILLER_35_1549
*8323 FILLER_35_1557
*8324 FILLER_35_1565
*8325 FILLER_35_1573
*8326 FILLER_35_1581
*8327 FILLER_35_1589
*8328 FILLER_35_1597
*8317 FILLER_35_16
*8329 FILLER_35_1605
*8330 FILLER_35_1610
*8331 FILLER_35_1618
*8332 FILLER_35_1626
*8333 FILLER_35_1634
*8334 FILLER_35_1642
*8335 FILLER_35_1650
*8336 FILLER_35_1658
*8337 FILLER_35_1666
*8338 FILLER_35_1668
*8339 FILLER_35_1670
*8340 FILLER_35_1678
*8341 FILLER_35_1686
*8342 FILLER_35_1694
*8343 FILLER_35_1702
*8344 FILLER_35_1710
*8345 FILLER_35_1718
*8346 FILLER_35_1726
*8347 FILLER_35_1728
*8348 FILLER_35_1730
*8349 FILLER_35_1738
*8350 FILLER_35_1746
*8351 FILLER_35_1754
*8352 FILLER_35_1762
*8353 FILLER_35_1770
*8354 FILLER_35_1778
*8355 FILLER_35_1786
*8356 FILLER_35_1788
*8357 FILLER_35_1790
*8358 FILLER_35_1798
*8359 FILLER_35_1806
*8360 FILLER_35_1814
*8361 FILLER_35_1822
*8362 FILLER_35_1830
*8363 FILLER_35_1838
*8364 FILLER_35_1846
*8365 FILLER_35_1848
*8366 FILLER_35_1850
*8367 FILLER_35_1858
*8368 FILLER_35_1866
*8369 FILLER_35_1874
*8370 FILLER_35_1882
*8371 FILLER_35_1890
*8372 FILLER_35_1898
*8373 FILLER_35_1906
*8374 FILLER_35_1908
*8375 FILLER_35_1910
*8376 FILLER_35_1918
*8377 FILLER_35_1926
*8378 FILLER_35_1934
*8379 FILLER_35_1942
*8380 FILLER_35_1950
*8381 FILLER_35_1958
*8382 FILLER_35_1966
*8383 FILLER_35_1968
*8384 FILLER_35_1970
*8385 FILLER_35_1978
*8386 FILLER_35_1986
*8387 FILLER_35_1994
*8388 FILLER_35_2002
*8389 FILLER_35_2010
*8390 FILLER_35_2018
*8391 FILLER_35_2026
*8392 FILLER_35_2028
*8393 FILLER_35_2030
*8394 FILLER_35_2038
*8395 FILLER_35_2046
*8396 FILLER_35_2054
*8397 FILLER_35_2062
*8398 FILLER_35_2070
*8399 FILLER_35_2078
*8400 FILLER_35_2086
*8401 FILLER_35_2088
*8402 FILLER_35_2090
*8403 FILLER_35_2098
*8404 FILLER_35_2106
*8405 FILLER_35_2114
*8406 FILLER_35_2122
*8318 FILLER_35_24
*8319 FILLER_35_32
*8320 FILLER_35_36
*8321 FILLER_35_38
*8316 FILLER_35_8
*8407 FILLER_36_0
*8413 FILLER_36_1549
*8414 FILLER_36_1557
*8415 FILLER_36_1565
*8416 FILLER_36_1573
*8417 FILLER_36_1577
*8418 FILLER_36_1580
*8419 FILLER_36_1588
*8420 FILLER_36_1596
*8409 FILLER_36_16
*8421 FILLER_36_1604
*8422 FILLER_36_1612
*8423 FILLER_36_1620
*8424 FILLER_36_1628
*8425 FILLER_36_1636
*8426 FILLER_36_1638
*8427 FILLER_36_1640
*8428 FILLER_36_1648
*8429 FILLER_36_1656
*8430 FILLER_36_1664
*8431 FILLER_36_1672
*8432 FILLER_36_1680
*8433 FILLER_36_1688
*8434 FILLER_36_1696
*8435 FILLER_36_1698
*8436 FILLER_36_1700
*8437 FILLER_36_1708
*8438 FILLER_36_1716
*8439 FILLER_36_1724
*8440 FILLER_36_1732
*8441 FILLER_36_1740
*8442 FILLER_36_1748
*8443 FILLER_36_1756
*8444 FILLER_36_1758
*8445 FILLER_36_1760
*8446 FILLER_36_1768
*8447 FILLER_36_1776
*8448 FILLER_36_1784
*8449 FILLER_36_1792
*8450 FILLER_36_1800
*8451 FILLER_36_1808
*8452 FILLER_36_1816
*8453 FILLER_36_1818
*8454 FILLER_36_1820
*8455 FILLER_36_1828
*8456 FILLER_36_1836
*8457 FILLER_36_1844
*8458 FILLER_36_1852
*8459 FILLER_36_1860
*8460 FILLER_36_1868
*8461 FILLER_36_1876
*8462 FILLER_36_1878
*8463 FILLER_36_1880
*8464 FILLER_36_1888
*8465 FILLER_36_1896
*8466 FILLER_36_1904
*8467 FILLER_36_1912
*8468 FILLER_36_1920
*8469 FILLER_36_1928
*8470 FILLER_36_1936
*8471 FILLER_36_1938
*8472 FILLER_36_1940
*8473 FILLER_36_1948
*8474 FILLER_36_1956
*8475 FILLER_36_1964
*8476 FILLER_36_1972
*8477 FILLER_36_1980
*8478 FILLER_36_1988
*8479 FILLER_36_1996
*8480 FILLER_36_1998
*8481 FILLER_36_2000
*8482 FILLER_36_2008
*8483 FILLER_36_2016
*8484 FILLER_36_2024
*8485 FILLER_36_2032
*8486 FILLER_36_2040
*8487 FILLER_36_2048
*8488 FILLER_36_2056
*8489 FILLER_36_2058
*8490 FILLER_36_2060
*8491 FILLER_36_2068
*8492 FILLER_36_2076
*8493 FILLER_36_2084
*8494 FILLER_36_2092
*8495 FILLER_36_2100
*8496 FILLER_36_2108
*8497 FILLER_36_2116
*8498 FILLER_36_2118
*8499 FILLER_36_2120
*8500 FILLER_36_2128
*8410 FILLER_36_24
*8411 FILLER_36_28
*8412 FILLER_36_31
*8408 FILLER_36_8
*8501 FILLER_37_0
*8508 FILLER_37_1549
*8509 FILLER_37_1557
*8510 FILLER_37_1565
*8511 FILLER_37_1573
*8512 FILLER_37_1581
*8513 FILLER_37_1589
*8514 FILLER_37_1597
*8503 FILLER_37_16
*8515 FILLER_37_1605
*8516 FILLER_37_1610
*8517 FILLER_37_1618
*8518 FILLER_37_1626
*8519 FILLER_37_1634
*8520 FILLER_37_1642
*8521 FILLER_37_1650
*8522 FILLER_37_1658
*8523 FILLER_37_1666
*8524 FILLER_37_1668
*8525 FILLER_37_1670
*8526 FILLER_37_1678
*8527 FILLER_37_1686
*8528 FILLER_37_1694
*8529 FILLER_37_1702
*8530 FILLER_37_1710
*8531 FILLER_37_1718
*8532 FILLER_37_1726
*8533 FILLER_37_1728
*8534 FILLER_37_1730
*8535 FILLER_37_1738
*8536 FILLER_37_1746
*8537 FILLER_37_1754
*8538 FILLER_37_1762
*8539 FILLER_37_1770
*8540 FILLER_37_1778
*8541 FILLER_37_1786
*8542 FILLER_37_1788
*8543 FILLER_37_1790
*8544 FILLER_37_1798
*8545 FILLER_37_1806
*8546 FILLER_37_1814
*8547 FILLER_37_1822
*8548 FILLER_37_1830
*8549 FILLER_37_1838
*8550 FILLER_37_1846
*8551 FILLER_37_1848
*8552 FILLER_37_1850
*8553 FILLER_37_1858
*8554 FILLER_37_1866
*8555 FILLER_37_1874
*8556 FILLER_37_1882
*8557 FILLER_37_1890
*8558 FILLER_37_1898
*8559 FILLER_37_1906
*8560 FILLER_37_1908
*8561 FILLER_37_1910
*8562 FILLER_37_1918
*8563 FILLER_37_1926
*8564 FILLER_37_1934
*8565 FILLER_37_1942
*8566 FILLER_37_1950
*8567 FILLER_37_1958
*8568 FILLER_37_1966
*8569 FILLER_37_1968
*8570 FILLER_37_1970
*8571 FILLER_37_1978
*8572 FILLER_37_1986
*8573 FILLER_37_1994
*8574 FILLER_37_2002
*8575 FILLER_37_2010
*8576 FILLER_37_2018
*8577 FILLER_37_2026
*8578 FILLER_37_2028
*8579 FILLER_37_2030
*8580 FILLER_37_2038
*8581 FILLER_37_2046
*8582 FILLER_37_2054
*8583 FILLER_37_2062
*8584 FILLER_37_2070
*8585 FILLER_37_2078
*8586 FILLER_37_2086
*8587 FILLER_37_2088
*8588 FILLER_37_2090
*8589 FILLER_37_2098
*8590 FILLER_37_2106
*8591 FILLER_37_2114
*8592 FILLER_37_2122
*8504 FILLER_37_24
*8505 FILLER_37_32
*8506 FILLER_37_36
*8507 FILLER_37_38
*8502 FILLER_37_8
*8593 FILLER_38_0
*8599 FILLER_38_1549
*8600 FILLER_38_1557
*8601 FILLER_38_1565
*8602 FILLER_38_1573
*8603 FILLER_38_1577
*8604 FILLER_38_1580
*8605 FILLER_38_1588
*8606 FILLER_38_1596
*8595 FILLER_38_16
*8607 FILLER_38_1604
*8608 FILLER_38_1612
*8609 FILLER_38_1620
*8610 FILLER_38_1628
*8611 FILLER_38_1636
*8612 FILLER_38_1638
*8613 FILLER_38_1640
*8614 FILLER_38_1648
*8615 FILLER_38_1656
*8616 FILLER_38_1664
*8617 FILLER_38_1672
*8618 FILLER_38_1680
*8619 FILLER_38_1688
*8620 FILLER_38_1696
*8621 FILLER_38_1698
*8622 FILLER_38_1700
*8623 FILLER_38_1708
*8624 FILLER_38_1716
*8625 FILLER_38_1724
*8626 FILLER_38_1732
*8627 FILLER_38_1740
*8628 FILLER_38_1748
*8629 FILLER_38_1756
*8630 FILLER_38_1758
*8631 FILLER_38_1760
*8632 FILLER_38_1768
*8633 FILLER_38_1776
*8634 FILLER_38_1784
*8635 FILLER_38_1792
*8636 FILLER_38_1800
*8637 FILLER_38_1808
*8638 FILLER_38_1816
*8639 FILLER_38_1818
*8640 FILLER_38_1820
*8641 FILLER_38_1828
*8642 FILLER_38_1836
*8643 FILLER_38_1844
*8644 FILLER_38_1852
*8645 FILLER_38_1860
*8646 FILLER_38_1868
*8647 FILLER_38_1876
*8648 FILLER_38_1878
*8649 FILLER_38_1880
*8650 FILLER_38_1888
*8651 FILLER_38_1896
*8652 FILLER_38_1904
*8653 FILLER_38_1912
*8654 FILLER_38_1920
*8655 FILLER_38_1928
*8656 FILLER_38_1936
*8657 FILLER_38_1938
*8658 FILLER_38_1940
*8659 FILLER_38_1948
*8660 FILLER_38_1956
*8661 FILLER_38_1964
*8662 FILLER_38_1972
*8663 FILLER_38_1980
*8664 FILLER_38_1988
*8665 FILLER_38_1996
*8666 FILLER_38_1998
*8667 FILLER_38_2000
*8668 FILLER_38_2008
*8669 FILLER_38_2016
*8670 FILLER_38_2024
*8671 FILLER_38_2032
*8672 FILLER_38_2040
*8673 FILLER_38_2048
*8674 FILLER_38_2056
*8675 FILLER_38_2058
*8676 FILLER_38_2060
*8677 FILLER_38_2068
*8678 FILLER_38_2076
*8679 FILLER_38_2084
*8680 FILLER_38_2092
*8681 FILLER_38_2100
*8682 FILLER_38_2108
*8683 FILLER_38_2116
*8684 FILLER_38_2118
*8685 FILLER_38_2120
*8686 FILLER_38_2128
*8596 FILLER_38_24
*8597 FILLER_38_28
*8598 FILLER_38_31
*8594 FILLER_38_8
*8687 FILLER_39_0
*8694 FILLER_39_1549
*8695 FILLER_39_1557
*8696 FILLER_39_1565
*8697 FILLER_39_1573
*8698 FILLER_39_1581
*8699 FILLER_39_1589
*8700 FILLER_39_1597
*8689 FILLER_39_16
*8701 FILLER_39_1605
*8702 FILLER_39_1610
*8703 FILLER_39_1618
*8704 FILLER_39_1626
*8705 FILLER_39_1634
*8706 FILLER_39_1642
*8707 FILLER_39_1650
*8708 FILLER_39_1658
*8709 FILLER_39_1666
*8710 FILLER_39_1668
*8711 FILLER_39_1670
*8712 FILLER_39_1678
*8713 FILLER_39_1686
*8714 FILLER_39_1694
*8715 FILLER_39_1702
*8716 FILLER_39_1710
*8717 FILLER_39_1718
*8718 FILLER_39_1726
*8719 FILLER_39_1728
*8720 FILLER_39_1730
*8721 FILLER_39_1738
*8722 FILLER_39_1746
*8723 FILLER_39_1754
*8724 FILLER_39_1762
*8725 FILLER_39_1770
*8726 FILLER_39_1778
*8727 FILLER_39_1786
*8728 FILLER_39_1788
*8729 FILLER_39_1790
*8730 FILLER_39_1798
*8731 FILLER_39_1806
*8732 FILLER_39_1814
*8733 FILLER_39_1822
*8734 FILLER_39_1830
*8735 FILLER_39_1838
*8736 FILLER_39_1846
*8737 FILLER_39_1848
*8738 FILLER_39_1850
*8739 FILLER_39_1858
*8740 FILLER_39_1866
*8741 FILLER_39_1874
*8742 FILLER_39_1882
*8743 FILLER_39_1890
*8744 FILLER_39_1898
*8745 FILLER_39_1906
*8746 FILLER_39_1908
*8747 FILLER_39_1910
*8748 FILLER_39_1918
*8749 FILLER_39_1926
*8750 FILLER_39_1934
*8751 FILLER_39_1942
*8752 FILLER_39_1950
*8753 FILLER_39_1958
*8754 FILLER_39_1966
*8755 FILLER_39_1968
*8756 FILLER_39_1970
*8757 FILLER_39_1978
*8758 FILLER_39_1986
*8759 FILLER_39_1994
*8760 FILLER_39_2002
*8761 FILLER_39_2010
*8762 FILLER_39_2018
*8763 FILLER_39_2026
*8764 FILLER_39_2028
*8765 FILLER_39_2030
*8766 FILLER_39_2038
*8767 FILLER_39_2046
*8768 FILLER_39_2054
*8769 FILLER_39_2062
*8770 FILLER_39_2070
*8771 FILLER_39_2078
*8772 FILLER_39_2086
*8773 FILLER_39_2088
*8774 FILLER_39_2090
*8775 FILLER_39_2098
*8776 FILLER_39_2106
*8777 FILLER_39_2114
*8778 FILLER_39_2122
*8690 FILLER_39_24
*8691 FILLER_39_32
*8692 FILLER_39_36
*8693 FILLER_39_38
*8688 FILLER_39_8
*4623 FILLER_3_0
*4771 FILLER_3_1001
*4772 FILLER_3_1009
*4636 FILLER_3_101
*4773 FILLER_3_1017
*4774 FILLER_3_1019
*4775 FILLER_3_1021
*4776 FILLER_3_1029
*4777 FILLER_3_1037
*4778 FILLER_3_1045
*4779 FILLER_3_1053
*4780 FILLER_3_1061
*4781 FILLER_3_1069
*4782 FILLER_3_1077
*4783 FILLER_3_1079
*4784 FILLER_3_1081
*4785 FILLER_3_1089
*4637 FILLER_3_109
*4786 FILLER_3_1097
*4787 FILLER_3_1105
*4788 FILLER_3_1113
*4789 FILLER_3_1121
*4790 FILLER_3_1129
*4791 FILLER_3_1137
*4792 FILLER_3_1139
*4793 FILLER_3_1141
*4794 FILLER_3_1149
*4795 FILLER_3_1157
*4796 FILLER_3_1165
*4638 FILLER_3_117
*4797 FILLER_3_1173
*4798 FILLER_3_1181
*4799 FILLER_3_1189
*4639 FILLER_3_119
*4800 FILLER_3_1197
*4801 FILLER_3_1199
*4802 FILLER_3_1201
*4803 FILLER_3_1209
*4640 FILLER_3_121
*4804 FILLER_3_1217
*4805 FILLER_3_1225
*4806 FILLER_3_1233
*4807 FILLER_3_1241
*4808 FILLER_3_1249
*4809 FILLER_3_1257
*4810 FILLER_3_1259
*4811 FILLER_3_1261
*4812 FILLER_3_1269
*4813 FILLER_3_1277
*4814 FILLER_3_1285
*4641 FILLER_3_129
*4815 FILLER_3_1293
*4816 FILLER_3_1301
*4817 FILLER_3_1309
*4818 FILLER_3_1317
*4819 FILLER_3_1319
*4820 FILLER_3_1321
*4821 FILLER_3_1329
*4822 FILLER_3_1337
*4823 FILLER_3_1345
*4824 FILLER_3_1353
*4825 FILLER_3_1361
*4826 FILLER_3_1369
*4642 FILLER_3_137
*4827 FILLER_3_1377
*4828 FILLER_3_1379
*4829 FILLER_3_1381
*4830 FILLER_3_1389
*4831 FILLER_3_1397
*4832 FILLER_3_1405
*4833 FILLER_3_1413
*4834 FILLER_3_1421
*4835 FILLER_3_1429
*4836 FILLER_3_1437
*4837 FILLER_3_1439
*4838 FILLER_3_1441
*4839 FILLER_3_1449
*4643 FILLER_3_145
*4840 FILLER_3_1457
*4841 FILLER_3_1465
*4842 FILLER_3_1473
*4843 FILLER_3_1481
*4844 FILLER_3_1489
*4845 FILLER_3_1497
*4846 FILLER_3_1499
*4847 FILLER_3_1501
*4848 FILLER_3_1509
*4849 FILLER_3_1517
*4850 FILLER_3_1525
*4644 FILLER_3_153
*4851 FILLER_3_1533
*4852 FILLER_3_1541
*4853 FILLER_3_1549
*4854 FILLER_3_1557
*4855 FILLER_3_1559
*4856 FILLER_3_1561
*4857 FILLER_3_1569
*4858 FILLER_3_1577
*4859 FILLER_3_1585
*4860 FILLER_3_1593
*4625 FILLER_3_16
*4861 FILLER_3_1601
*4862 FILLER_3_1609
*4645 FILLER_3_161
*4863 FILLER_3_1617
*4864 FILLER_3_1619
*4865 FILLER_3_1621
*4866 FILLER_3_1629
*4867 FILLER_3_1637
*4868 FILLER_3_1645
*4869 FILLER_3_1653
*4870 FILLER_3_1661
*4871 FILLER_3_1669
*4872 FILLER_3_1677
*4873 FILLER_3_1679
*4874 FILLER_3_1681
*4875 FILLER_3_1689
*4646 FILLER_3_169
*4876 FILLER_3_1697
*4877 FILLER_3_1705
*4878 FILLER_3_1713
*4879 FILLER_3_1721
*4880 FILLER_3_1729
*4881 FILLER_3_1737
*4882 FILLER_3_1739
*4883 FILLER_3_1741
*4884 FILLER_3_1749
*4885 FILLER_3_1757
*4886 FILLER_3_1765
*4647 FILLER_3_177
*4887 FILLER_3_1773
*4888 FILLER_3_1781
*4889 FILLER_3_1789
*4648 FILLER_3_179
*4890 FILLER_3_1797
*4891 FILLER_3_1799
*4892 FILLER_3_1801
*4893 FILLER_3_1809
*4649 FILLER_3_181
*4894 FILLER_3_1817
*4895 FILLER_3_1825
*4896 FILLER_3_1833
*4897 FILLER_3_1841
*4898 FILLER_3_1849
*4899 FILLER_3_1857
*4900 FILLER_3_1859
*4901 FILLER_3_1861
*4902 FILLER_3_1869
*4903 FILLER_3_1877
*4904 FILLER_3_1885
*4650 FILLER_3_189
*4905 FILLER_3_1893
*4906 FILLER_3_1901
*4907 FILLER_3_1909
*4908 FILLER_3_1917
*4909 FILLER_3_1919
*4910 FILLER_3_1921
*4911 FILLER_3_1929
*4912 FILLER_3_1937
*4913 FILLER_3_1945
*4914 FILLER_3_1953
*4915 FILLER_3_1961
*4916 FILLER_3_1969
*4651 FILLER_3_197
*4917 FILLER_3_1977
*4918 FILLER_3_1979
*4919 FILLER_3_1981
*4920 FILLER_3_1989
*4921 FILLER_3_1997
*4922 FILLER_3_2005
*4923 FILLER_3_2013
*4924 FILLER_3_2021
*4925 FILLER_3_2029
*4926 FILLER_3_2037
*4927 FILLER_3_2039
*4928 FILLER_3_2041
*4929 FILLER_3_2049
*4652 FILLER_3_205
*4930 FILLER_3_2057
*4931 FILLER_3_2065
*4932 FILLER_3_2073
*4933 FILLER_3_2081
*4934 FILLER_3_2089
*4935 FILLER_3_2097
*4936 FILLER_3_2099
*4937 FILLER_3_2101
*4938 FILLER_3_2109
*4939 FILLER_3_2117
*4940 FILLER_3_2125
*4941 FILLER_3_2129
*4653 FILLER_3_213
*4654 FILLER_3_221
*4655 FILLER_3_229
*4656 FILLER_3_237
*4657 FILLER_3_239
*4626 FILLER_3_24
*4658 FILLER_3_241
*4659 FILLER_3_249
*4660 FILLER_3_257
*4661 FILLER_3_265
*4662 FILLER_3_273
*4663 FILLER_3_281
*4664 FILLER_3_289
*4665 FILLER_3_297
*4666 FILLER_3_299
*4667 FILLER_3_301
*4668 FILLER_3_309
*4669 FILLER_3_317
*4627 FILLER_3_32
*4670 FILLER_3_325
*4671 FILLER_3_333
*4672 FILLER_3_341
*4673 FILLER_3_349
*4674 FILLER_3_357
*4675 FILLER_3_359
*4676 FILLER_3_361
*4677 FILLER_3_369
*4678 FILLER_3_377
*4679 FILLER_3_385
*4680 FILLER_3_393
*4628 FILLER_3_40
*4681 FILLER_3_401
*4682 FILLER_3_409
*4683 FILLER_3_417
*4684 FILLER_3_419
*4685 FILLER_3_421
*4686 FILLER_3_429
*4687 FILLER_3_437
*4688 FILLER_3_445
*4689 FILLER_3_453
*4690 FILLER_3_461
*4691 FILLER_3_469
*4692 FILLER_3_477
*4693 FILLER_3_479
*4629 FILLER_3_48
*4694 FILLER_3_481
*4695 FILLER_3_489
*4696 FILLER_3_497
*4697 FILLER_3_505
*4698 FILLER_3_513
*4699 FILLER_3_521
*4700 FILLER_3_529
*4701 FILLER_3_537
*4702 FILLER_3_539
*4703 FILLER_3_541
*4704 FILLER_3_549
*4705 FILLER_3_557
*4630 FILLER_3_56
*4706 FILLER_3_565
*4707 FILLER_3_573
*4708 FILLER_3_581
*4709 FILLER_3_589
*4710 FILLER_3_597
*4711 FILLER_3_599
*4712 FILLER_3_601
*4713 FILLER_3_609
*4631 FILLER_3_61
*4714 FILLER_3_617
*4715 FILLER_3_625
*4716 FILLER_3_633
*4717 FILLER_3_641
*4718 FILLER_3_649
*4719 FILLER_3_657
*4720 FILLER_3_659
*4721 FILLER_3_661
*4722 FILLER_3_669
*4723 FILLER_3_677
*4724 FILLER_3_685
*4632 FILLER_3_69
*4725 FILLER_3_693
*4726 FILLER_3_701
*4727 FILLER_3_709
*4728 FILLER_3_717
*4729 FILLER_3_719
*4730 FILLER_3_721
*4731 FILLER_3_729
*4732 FILLER_3_737
*4733 FILLER_3_745
*4734 FILLER_3_753
*4735 FILLER_3_761
*4736 FILLER_3_769
*4633 FILLER_3_77
*4737 FILLER_3_777
*4738 FILLER_3_779
*4739 FILLER_3_781
*4740 FILLER_3_789
*4741 FILLER_3_797
*4624 FILLER_3_8
*4742 FILLER_3_805
*4743 FILLER_3_813
*4744 FILLER_3_821
*4745 FILLER_3_829
*4746 FILLER_3_837
*4747 FILLER_3_839
*4748 FILLER_3_841
*4749 FILLER_3_849
*4634 FILLER_3_85
*4750 FILLER_3_857
*4751 FILLER_3_865
*4752 FILLER_3_873
*4753 FILLER_3_881
*4754 FILLER_3_889
*4755 FILLER_3_897
*4756 FILLER_3_899
*4757 FILLER_3_901
*4758 FILLER_3_909
*4759 FILLER_3_917
*4760 FILLER_3_925
*4635 FILLER_3_93
*4761 FILLER_3_933
*4762 FILLER_3_941
*4763 FILLER_3_949
*4764 FILLER_3_957
*4765 FILLER_3_959
*4766 FILLER_3_961
*4767 FILLER_3_969
*4768 FILLER_3_977
*4769 FILLER_3_985
*4770 FILLER_3_993
*8779 FILLER_40_0
*8785 FILLER_40_1549
*8786 FILLER_40_1557
*8787 FILLER_40_1565
*8788 FILLER_40_1573
*8789 FILLER_40_1577
*8790 FILLER_40_1580
*8791 FILLER_40_1588
*8792 FILLER_40_1596
*8781 FILLER_40_16
*8793 FILLER_40_1604
*8794 FILLER_40_1612
*8795 FILLER_40_1620
*8796 FILLER_40_1628
*8797 FILLER_40_1636
*8798 FILLER_40_1638
*8799 FILLER_40_1640
*8800 FILLER_40_1648
*8801 FILLER_40_1656
*8802 FILLER_40_1664
*8803 FILLER_40_1672
*8804 FILLER_40_1680
*8805 FILLER_40_1688
*8806 FILLER_40_1696
*8807 FILLER_40_1698
*8808 FILLER_40_1700
*8809 FILLER_40_1708
*8810 FILLER_40_1716
*8811 FILLER_40_1724
*8812 FILLER_40_1732
*8813 FILLER_40_1740
*8814 FILLER_40_1748
*8815 FILLER_40_1756
*8816 FILLER_40_1758
*8817 FILLER_40_1760
*8818 FILLER_40_1768
*8819 FILLER_40_1776
*8820 FILLER_40_1784
*8821 FILLER_40_1792
*8822 FILLER_40_1800
*8823 FILLER_40_1808
*8824 FILLER_40_1816
*8825 FILLER_40_1818
*8826 FILLER_40_1820
*8827 FILLER_40_1828
*8828 FILLER_40_1836
*8829 FILLER_40_1844
*8830 FILLER_40_1852
*8831 FILLER_40_1860
*8832 FILLER_40_1868
*8833 FILLER_40_1876
*8834 FILLER_40_1878
*8835 FILLER_40_1880
*8836 FILLER_40_1888
*8837 FILLER_40_1896
*8838 FILLER_40_1904
*8839 FILLER_40_1912
*8840 FILLER_40_1920
*8841 FILLER_40_1928
*8842 FILLER_40_1936
*8843 FILLER_40_1938
*8844 FILLER_40_1940
*8845 FILLER_40_1948
*8846 FILLER_40_1956
*8847 FILLER_40_1964
*8848 FILLER_40_1972
*8849 FILLER_40_1980
*8850 FILLER_40_1988
*8851 FILLER_40_1996
*8852 FILLER_40_1998
*8853 FILLER_40_2000
*8854 FILLER_40_2008
*8855 FILLER_40_2016
*8856 FILLER_40_2024
*8857 FILLER_40_2032
*8858 FILLER_40_2040
*8859 FILLER_40_2048
*8860 FILLER_40_2056
*8861 FILLER_40_2058
*8862 FILLER_40_2060
*8863 FILLER_40_2068
*8864 FILLER_40_2076
*8865 FILLER_40_2084
*8866 FILLER_40_2092
*8867 FILLER_40_2100
*8868 FILLER_40_2108
*8869 FILLER_40_2116
*8870 FILLER_40_2118
*8871 FILLER_40_2120
*8872 FILLER_40_2128
*8782 FILLER_40_24
*8783 FILLER_40_28
*8784 FILLER_40_31
*8780 FILLER_40_8
*8873 FILLER_41_0
*8880 FILLER_41_1549
*8881 FILLER_41_1557
*8882 FILLER_41_1565
*8883 FILLER_41_1573
*8884 FILLER_41_1581
*8885 FILLER_41_1589
*8886 FILLER_41_1597
*8875 FILLER_41_16
*8887 FILLER_41_1605
*8888 FILLER_41_1610
*8889 FILLER_41_1618
*8890 FILLER_41_1626
*8891 FILLER_41_1634
*8892 FILLER_41_1642
*8893 FILLER_41_1650
*8894 FILLER_41_1658
*8895 FILLER_41_1666
*8896 FILLER_41_1668
*8897 FILLER_41_1670
*8898 FILLER_41_1678
*8899 FILLER_41_1686
*8900 FILLER_41_1694
*8901 FILLER_41_1702
*8902 FILLER_41_1710
*8903 FILLER_41_1718
*8904 FILLER_41_1726
*8905 FILLER_41_1728
*8906 FILLER_41_1730
*8907 FILLER_41_1738
*8908 FILLER_41_1746
*8909 FILLER_41_1754
*8910 FILLER_41_1762
*8911 FILLER_41_1770
*8912 FILLER_41_1778
*8913 FILLER_41_1786
*8914 FILLER_41_1788
*8915 FILLER_41_1790
*8916 FILLER_41_1798
*8917 FILLER_41_1806
*8918 FILLER_41_1814
*8919 FILLER_41_1822
*8920 FILLER_41_1830
*8921 FILLER_41_1838
*8922 FILLER_41_1846
*8923 FILLER_41_1848
*8924 FILLER_41_1850
*8925 FILLER_41_1858
*8926 FILLER_41_1866
*8927 FILLER_41_1874
*8928 FILLER_41_1882
*8929 FILLER_41_1890
*8930 FILLER_41_1898
*8931 FILLER_41_1906
*8932 FILLER_41_1908
*8933 FILLER_41_1910
*8934 FILLER_41_1918
*8935 FILLER_41_1926
*8936 FILLER_41_1934
*8937 FILLER_41_1942
*8938 FILLER_41_1950
*8939 FILLER_41_1958
*8940 FILLER_41_1966
*8941 FILLER_41_1968
*8942 FILLER_41_1970
*8943 FILLER_41_1978
*8944 FILLER_41_1986
*8945 FILLER_41_1994
*8946 FILLER_41_2002
*8947 FILLER_41_2010
*8948 FILLER_41_2018
*8949 FILLER_41_2026
*8950 FILLER_41_2028
*8951 FILLER_41_2030
*8952 FILLER_41_2038
*8953 FILLER_41_2046
*8954 FILLER_41_2054
*8955 FILLER_41_2062
*8956 FILLER_41_2070
*8957 FILLER_41_2078
*8958 FILLER_41_2086
*8959 FILLER_41_2088
*8960 FILLER_41_2090
*8961 FILLER_41_2098
*8962 FILLER_41_2106
*8963 FILLER_41_2114
*8964 FILLER_41_2122
*8876 FILLER_41_24
*8877 FILLER_41_32
*8878 FILLER_41_36
*8879 FILLER_41_38
*8874 FILLER_41_8
*8965 FILLER_42_0
*8971 FILLER_42_1549
*8972 FILLER_42_1557
*8973 FILLER_42_1565
*8974 FILLER_42_1573
*8975 FILLER_42_1577
*8976 FILLER_42_1580
*8977 FILLER_42_1588
*8978 FILLER_42_1596
*8967 FILLER_42_16
*8979 FILLER_42_1604
*8980 FILLER_42_1612
*8981 FILLER_42_1620
*8982 FILLER_42_1628
*8983 FILLER_42_1636
*8984 FILLER_42_1638
*8985 FILLER_42_1640
*8986 FILLER_42_1648
*8987 FILLER_42_1656
*8988 FILLER_42_1664
*8989 FILLER_42_1672
*8990 FILLER_42_1680
*8991 FILLER_42_1688
*8992 FILLER_42_1696
*8993 FILLER_42_1698
*8994 FILLER_42_1700
*8995 FILLER_42_1708
*8996 FILLER_42_1716
*8997 FILLER_42_1724
*8998 FILLER_42_1732
*8999 FILLER_42_1740
*9000 FILLER_42_1748
*9001 FILLER_42_1756
*9002 FILLER_42_1758
*9003 FILLER_42_1760
*9004 FILLER_42_1768
*9005 FILLER_42_1776
*9006 FILLER_42_1784
*9007 FILLER_42_1792
*9008 FILLER_42_1800
*9009 FILLER_42_1808
*9010 FILLER_42_1816
*9011 FILLER_42_1818
*9012 FILLER_42_1820
*9013 FILLER_42_1828
*9014 FILLER_42_1836
*9015 FILLER_42_1844
*9016 FILLER_42_1852
*9017 FILLER_42_1860
*9018 FILLER_42_1868
*9019 FILLER_42_1876
*9020 FILLER_42_1878
*9021 FILLER_42_1880
*9022 FILLER_42_1888
*9023 FILLER_42_1896
*9024 FILLER_42_1904
*9025 FILLER_42_1912
*9026 FILLER_42_1920
*9027 FILLER_42_1928
*9028 FILLER_42_1936
*9029 FILLER_42_1938
*9030 FILLER_42_1940
*9031 FILLER_42_1948
*9032 FILLER_42_1956
*9033 FILLER_42_1964
*9034 FILLER_42_1972
*9035 FILLER_42_1980
*9036 FILLER_42_1988
*9037 FILLER_42_1996
*9038 FILLER_42_1998
*9039 FILLER_42_2000
*9040 FILLER_42_2008
*9041 FILLER_42_2016
*9042 FILLER_42_2024
*9043 FILLER_42_2032
*9044 FILLER_42_2040
*9045 FILLER_42_2048
*9046 FILLER_42_2056
*9047 FILLER_42_2058
*9048 FILLER_42_2060
*9049 FILLER_42_2068
*9050 FILLER_42_2076
*9051 FILLER_42_2084
*9052 FILLER_42_2092
*9053 FILLER_42_2100
*9054 FILLER_42_2108
*9055 FILLER_42_2116
*9056 FILLER_42_2118
*9057 FILLER_42_2120
*9058 FILLER_42_2128
*8968 FILLER_42_24
*8969 FILLER_42_28
*8970 FILLER_42_31
*8966 FILLER_42_8
*9059 FILLER_43_0
*9066 FILLER_43_1549
*9067 FILLER_43_1557
*9068 FILLER_43_1565
*9069 FILLER_43_1573
*9070 FILLER_43_1581
*9071 FILLER_43_1589
*9072 FILLER_43_1597
*9061 FILLER_43_16
*9073 FILLER_43_1605
*9074 FILLER_43_1610
*9075 FILLER_43_1618
*9076 FILLER_43_1626
*9077 FILLER_43_1634
*9078 FILLER_43_1642
*9079 FILLER_43_1650
*9080 FILLER_43_1658
*9081 FILLER_43_1666
*9082 FILLER_43_1668
*9083 FILLER_43_1670
*9084 FILLER_43_1678
*9085 FILLER_43_1686
*9086 FILLER_43_1694
*9087 FILLER_43_1702
*9088 FILLER_43_1710
*9089 FILLER_43_1718
*9090 FILLER_43_1726
*9091 FILLER_43_1728
*9092 FILLER_43_1730
*9093 FILLER_43_1738
*9094 FILLER_43_1746
*9095 FILLER_43_1754
*9096 FILLER_43_1762
*9097 FILLER_43_1770
*9098 FILLER_43_1778
*9099 FILLER_43_1786
*9100 FILLER_43_1788
*9101 FILLER_43_1790
*9102 FILLER_43_1798
*9103 FILLER_43_1806
*9104 FILLER_43_1814
*9105 FILLER_43_1822
*9106 FILLER_43_1830
*9107 FILLER_43_1838
*9108 FILLER_43_1846
*9109 FILLER_43_1848
*9110 FILLER_43_1850
*9111 FILLER_43_1858
*9112 FILLER_43_1866
*9113 FILLER_43_1874
*9114 FILLER_43_1882
*9115 FILLER_43_1890
*9116 FILLER_43_1898
*9117 FILLER_43_1906
*9118 FILLER_43_1908
*9119 FILLER_43_1910
*9120 FILLER_43_1918
*9121 FILLER_43_1926
*9122 FILLER_43_1934
*9123 FILLER_43_1942
*9124 FILLER_43_1950
*9125 FILLER_43_1958
*9126 FILLER_43_1966
*9127 FILLER_43_1968
*9128 FILLER_43_1970
*9129 FILLER_43_1978
*9130 FILLER_43_1986
*9131 FILLER_43_1994
*9132 FILLER_43_2002
*9133 FILLER_43_2010
*9134 FILLER_43_2018
*9135 FILLER_43_2026
*9136 FILLER_43_2028
*9137 FILLER_43_2030
*9138 FILLER_43_2038
*9139 FILLER_43_2046
*9140 FILLER_43_2054
*9141 FILLER_43_2062
*9142 FILLER_43_2070
*9143 FILLER_43_2078
*9144 FILLER_43_2086
*9145 FILLER_43_2088
*9146 FILLER_43_2090
*9147 FILLER_43_2098
*9148 FILLER_43_2106
*9149 FILLER_43_2114
*9150 FILLER_43_2122
*9062 FILLER_43_24
*9063 FILLER_43_32
*9064 FILLER_43_36
*9065 FILLER_43_38
*9060 FILLER_43_8
*9151 FILLER_44_0
*9157 FILLER_44_1549
*9158 FILLER_44_1557
*9159 FILLER_44_1565
*9160 FILLER_44_1573
*9161 FILLER_44_1577
*9162 FILLER_44_1580
*9163 FILLER_44_1588
*9164 FILLER_44_1596
*9153 FILLER_44_16
*9165 FILLER_44_1604
*9166 FILLER_44_1612
*9167 FILLER_44_1620
*9168 FILLER_44_1628
*9169 FILLER_44_1636
*9170 FILLER_44_1638
*9171 FILLER_44_1640
*9172 FILLER_44_1648
*9173 FILLER_44_1656
*9174 FILLER_44_1664
*9175 FILLER_44_1672
*9176 FILLER_44_1680
*9177 FILLER_44_1688
*9178 FILLER_44_1696
*9179 FILLER_44_1698
*9180 FILLER_44_1700
*9181 FILLER_44_1708
*9182 FILLER_44_1716
*9183 FILLER_44_1724
*9184 FILLER_44_1732
*9185 FILLER_44_1740
*9186 FILLER_44_1748
*9187 FILLER_44_1756
*9188 FILLER_44_1758
*9189 FILLER_44_1760
*9190 FILLER_44_1768
*9191 FILLER_44_1776
*9192 FILLER_44_1784
*9193 FILLER_44_1792
*9194 FILLER_44_1800
*9195 FILLER_44_1808
*9196 FILLER_44_1816
*9197 FILLER_44_1818
*9198 FILLER_44_1820
*9199 FILLER_44_1828
*9200 FILLER_44_1836
*9201 FILLER_44_1844
*9202 FILLER_44_1852
*9203 FILLER_44_1860
*9204 FILLER_44_1868
*9205 FILLER_44_1876
*9206 FILLER_44_1878
*9207 FILLER_44_1880
*9208 FILLER_44_1888
*9209 FILLER_44_1896
*9210 FILLER_44_1904
*9211 FILLER_44_1912
*9212 FILLER_44_1920
*9213 FILLER_44_1928
*9214 FILLER_44_1936
*9215 FILLER_44_1938
*9216 FILLER_44_1940
*9217 FILLER_44_1948
*9218 FILLER_44_1956
*9219 FILLER_44_1964
*9220 FILLER_44_1972
*9221 FILLER_44_1980
*9222 FILLER_44_1988
*9223 FILLER_44_1996
*9224 FILLER_44_1998
*9225 FILLER_44_2000
*9226 FILLER_44_2008
*9227 FILLER_44_2016
*9228 FILLER_44_2024
*9229 FILLER_44_2032
*9230 FILLER_44_2040
*9231 FILLER_44_2048
*9232 FILLER_44_2056
*9233 FILLER_44_2058
*9234 FILLER_44_2060
*9235 FILLER_44_2068
*9236 FILLER_44_2076
*9237 FILLER_44_2084
*9238 FILLER_44_2092
*9239 FILLER_44_2100
*9240 FILLER_44_2108
*9241 FILLER_44_2116
*9242 FILLER_44_2118
*9243 FILLER_44_2120
*9244 FILLER_44_2128
*9154 FILLER_44_24
*9155 FILLER_44_28
*9156 FILLER_44_31
*9152 FILLER_44_8
*9245 FILLER_45_0
*9252 FILLER_45_1549
*9253 FILLER_45_1557
*9254 FILLER_45_1565
*9255 FILLER_45_1573
*9256 FILLER_45_1581
*9257 FILLER_45_1589
*9258 FILLER_45_1597
*9247 FILLER_45_16
*9259 FILLER_45_1605
*9260 FILLER_45_1610
*9261 FILLER_45_1618
*9262 FILLER_45_1626
*9263 FILLER_45_1634
*9264 FILLER_45_1642
*9265 FILLER_45_1650
*9266 FILLER_45_1658
*9267 FILLER_45_1666
*9268 FILLER_45_1668
*9269 FILLER_45_1670
*9270 FILLER_45_1678
*9271 FILLER_45_1686
*9272 FILLER_45_1694
*9273 FILLER_45_1702
*9274 FILLER_45_1710
*9275 FILLER_45_1718
*9276 FILLER_45_1726
*9277 FILLER_45_1728
*9278 FILLER_45_1730
*9279 FILLER_45_1738
*9280 FILLER_45_1746
*9281 FILLER_45_1754
*9282 FILLER_45_1762
*9283 FILLER_45_1770
*9284 FILLER_45_1778
*9285 FILLER_45_1786
*9286 FILLER_45_1788
*9287 FILLER_45_1790
*9288 FILLER_45_1798
*9289 FILLER_45_1806
*9290 FILLER_45_1814
*9291 FILLER_45_1822
*9292 FILLER_45_1830
*9293 FILLER_45_1838
*9294 FILLER_45_1846
*9295 FILLER_45_1848
*9296 FILLER_45_1850
*9297 FILLER_45_1858
*9298 FILLER_45_1866
*9299 FILLER_45_1874
*9300 FILLER_45_1882
*9301 FILLER_45_1890
*9302 FILLER_45_1898
*9303 FILLER_45_1906
*9304 FILLER_45_1908
*9305 FILLER_45_1910
*9306 FILLER_45_1918
*9307 FILLER_45_1926
*9308 FILLER_45_1934
*9309 FILLER_45_1942
*9310 FILLER_45_1950
*9311 FILLER_45_1958
*9312 FILLER_45_1966
*9313 FILLER_45_1968
*9314 FILLER_45_1970
*9315 FILLER_45_1978
*9316 FILLER_45_1986
*9317 FILLER_45_1994
*9318 FILLER_45_2002
*9319 FILLER_45_2010
*9320 FILLER_45_2018
*9321 FILLER_45_2026
*9322 FILLER_45_2028
*9323 FILLER_45_2030
*9324 FILLER_45_2038
*9325 FILLER_45_2046
*9326 FILLER_45_2054
*9327 FILLER_45_2062
*9328 FILLER_45_2070
*9329 FILLER_45_2078
*9330 FILLER_45_2086
*9331 FILLER_45_2088
*9332 FILLER_45_2090
*9333 FILLER_45_2098
*9334 FILLER_45_2106
*9335 FILLER_45_2114
*9336 FILLER_45_2122
*9248 FILLER_45_24
*9249 FILLER_45_32
*9250 FILLER_45_36
*9251 FILLER_45_38
*9246 FILLER_45_8
*9337 FILLER_46_0
*9343 FILLER_46_1549
*9344 FILLER_46_1557
*9345 FILLER_46_1565
*9346 FILLER_46_1573
*9347 FILLER_46_1577
*9348 FILLER_46_1580
*9349 FILLER_46_1588
*9350 FILLER_46_1596
*9339 FILLER_46_16
*9351 FILLER_46_1604
*9352 FILLER_46_1612
*9353 FILLER_46_1620
*9354 FILLER_46_1628
*9355 FILLER_46_1636
*9356 FILLER_46_1638
*9357 FILLER_46_1640
*9358 FILLER_46_1648
*9359 FILLER_46_1656
*9360 FILLER_46_1664
*9361 FILLER_46_1672
*9362 FILLER_46_1680
*9363 FILLER_46_1688
*9364 FILLER_46_1696
*9365 FILLER_46_1698
*9366 FILLER_46_1700
*9367 FILLER_46_1708
*9368 FILLER_46_1716
*9369 FILLER_46_1724
*9370 FILLER_46_1732
*9371 FILLER_46_1740
*9372 FILLER_46_1748
*9373 FILLER_46_1756
*9374 FILLER_46_1758
*9375 FILLER_46_1760
*9376 FILLER_46_1768
*9377 FILLER_46_1776
*9378 FILLER_46_1784
*9379 FILLER_46_1792
*9380 FILLER_46_1800
*9381 FILLER_46_1808
*9382 FILLER_46_1816
*9383 FILLER_46_1818
*9384 FILLER_46_1820
*9385 FILLER_46_1828
*9386 FILLER_46_1836
*9387 FILLER_46_1844
*9388 FILLER_46_1852
*9389 FILLER_46_1860
*9390 FILLER_46_1868
*9391 FILLER_46_1876
*9392 FILLER_46_1878
*9393 FILLER_46_1880
*9394 FILLER_46_1888
*9395 FILLER_46_1896
*9396 FILLER_46_1904
*9397 FILLER_46_1912
*9398 FILLER_46_1920
*9399 FILLER_46_1928
*9400 FILLER_46_1936
*9401 FILLER_46_1938
*9402 FILLER_46_1940
*9403 FILLER_46_1948
*9404 FILLER_46_1956
*9405 FILLER_46_1964
*9406 FILLER_46_1972
*9407 FILLER_46_1980
*9408 FILLER_46_1988
*9409 FILLER_46_1996
*9410 FILLER_46_1998
*9411 FILLER_46_2000
*9412 FILLER_46_2008
*9413 FILLER_46_2016
*9414 FILLER_46_2024
*9415 FILLER_46_2032
*9416 FILLER_46_2040
*9417 FILLER_46_2048
*9418 FILLER_46_2056
*9419 FILLER_46_2058
*9420 FILLER_46_2060
*9421 FILLER_46_2068
*9422 FILLER_46_2076
*9423 FILLER_46_2084
*9424 FILLER_46_2092
*9425 FILLER_46_2100
*9426 FILLER_46_2108
*9427 FILLER_46_2116
*9428 FILLER_46_2118
*9429 FILLER_46_2120
*9430 FILLER_46_2128
*9340 FILLER_46_24
*9341 FILLER_46_28
*9342 FILLER_46_31
*9338 FILLER_46_8
*9431 FILLER_47_0
*9438 FILLER_47_1549
*9439 FILLER_47_1557
*9440 FILLER_47_1565
*9441 FILLER_47_1573
*9442 FILLER_47_1581
*9443 FILLER_47_1589
*9444 FILLER_47_1597
*9433 FILLER_47_16
*9445 FILLER_47_1605
*9446 FILLER_47_1610
*9447 FILLER_47_1618
*9448 FILLER_47_1626
*9449 FILLER_47_1634
*9450 FILLER_47_1642
*9451 FILLER_47_1650
*9452 FILLER_47_1658
*9453 FILLER_47_1666
*9454 FILLER_47_1668
*9455 FILLER_47_1670
*9456 FILLER_47_1678
*9457 FILLER_47_1686
*9458 FILLER_47_1694
*9459 FILLER_47_1702
*9460 FILLER_47_1710
*9461 FILLER_47_1718
*9462 FILLER_47_1726
*9463 FILLER_47_1728
*9464 FILLER_47_1730
*9465 FILLER_47_1738
*9466 FILLER_47_1746
*9467 FILLER_47_1754
*9468 FILLER_47_1762
*9469 FILLER_47_1770
*9470 FILLER_47_1778
*9471 FILLER_47_1786
*9472 FILLER_47_1788
*9473 FILLER_47_1790
*9474 FILLER_47_1798
*9475 FILLER_47_1806
*9476 FILLER_47_1814
*9477 FILLER_47_1822
*9478 FILLER_47_1830
*9479 FILLER_47_1838
*9480 FILLER_47_1846
*9481 FILLER_47_1848
*9482 FILLER_47_1850
*9483 FILLER_47_1858
*9484 FILLER_47_1866
*9485 FILLER_47_1874
*9486 FILLER_47_1882
*9487 FILLER_47_1890
*9488 FILLER_47_1898
*9489 FILLER_47_1906
*9490 FILLER_47_1908
*9491 FILLER_47_1910
*9492 FILLER_47_1918
*9493 FILLER_47_1926
*9494 FILLER_47_1934
*9495 FILLER_47_1942
*9496 FILLER_47_1950
*9497 FILLER_47_1958
*9498 FILLER_47_1966
*9499 FILLER_47_1968
*9500 FILLER_47_1970
*9501 FILLER_47_1978
*9502 FILLER_47_1986
*9503 FILLER_47_1994
*9504 FILLER_47_2002
*9505 FILLER_47_2010
*9506 FILLER_47_2018
*9507 FILLER_47_2026
*9508 FILLER_47_2028
*9509 FILLER_47_2030
*9510 FILLER_47_2038
*9511 FILLER_47_2046
*9512 FILLER_47_2054
*9513 FILLER_47_2062
*9514 FILLER_47_2070
*9515 FILLER_47_2078
*9516 FILLER_47_2086
*9517 FILLER_47_2088
*9518 FILLER_47_2090
*9519 FILLER_47_2098
*9520 FILLER_47_2106
*9521 FILLER_47_2114
*9522 FILLER_47_2122
*9434 FILLER_47_24
*9435 FILLER_47_32
*9436 FILLER_47_36
*9437 FILLER_47_38
*9432 FILLER_47_8
*9523 FILLER_48_0
*9529 FILLER_48_1549
*9530 FILLER_48_1557
*9531 FILLER_48_1565
*9532 FILLER_48_1573
*9533 FILLER_48_1577
*9534 FILLER_48_1580
*9535 FILLER_48_1588
*9536 FILLER_48_1596
*9525 FILLER_48_16
*9537 FILLER_48_1604
*9538 FILLER_48_1612
*9539 FILLER_48_1620
*9540 FILLER_48_1628
*9541 FILLER_48_1636
*9542 FILLER_48_1638
*9543 FILLER_48_1640
*9544 FILLER_48_1648
*9545 FILLER_48_1656
*9546 FILLER_48_1664
*9547 FILLER_48_1672
*9548 FILLER_48_1680
*9549 FILLER_48_1688
*9550 FILLER_48_1696
*9551 FILLER_48_1698
*9552 FILLER_48_1700
*9553 FILLER_48_1708
*9554 FILLER_48_1716
*9555 FILLER_48_1724
*9556 FILLER_48_1732
*9557 FILLER_48_1740
*9558 FILLER_48_1748
*9559 FILLER_48_1756
*9560 FILLER_48_1758
*9561 FILLER_48_1760
*9562 FILLER_48_1768
*9563 FILLER_48_1776
*9564 FILLER_48_1784
*9565 FILLER_48_1792
*9566 FILLER_48_1800
*9567 FILLER_48_1808
*9568 FILLER_48_1816
*9569 FILLER_48_1818
*9570 FILLER_48_1820
*9571 FILLER_48_1828
*9572 FILLER_48_1836
*9573 FILLER_48_1844
*9574 FILLER_48_1852
*9575 FILLER_48_1860
*9576 FILLER_48_1868
*9577 FILLER_48_1876
*9578 FILLER_48_1878
*9579 FILLER_48_1880
*9580 FILLER_48_1888
*9581 FILLER_48_1896
*9582 FILLER_48_1904
*9583 FILLER_48_1912
*9584 FILLER_48_1920
*9585 FILLER_48_1928
*9586 FILLER_48_1936
*9587 FILLER_48_1938
*9588 FILLER_48_1940
*9589 FILLER_48_1948
*9590 FILLER_48_1956
*9591 FILLER_48_1964
*9592 FILLER_48_1972
*9593 FILLER_48_1980
*9594 FILLER_48_1988
*9595 FILLER_48_1996
*9596 FILLER_48_1998
*9597 FILLER_48_2000
*9598 FILLER_48_2008
*9599 FILLER_48_2016
*9600 FILLER_48_2024
*9601 FILLER_48_2032
*9602 FILLER_48_2040
*9603 FILLER_48_2048
*9604 FILLER_48_2056
*9605 FILLER_48_2058
*9606 FILLER_48_2060
*9607 FILLER_48_2068
*9608 FILLER_48_2076
*9609 FILLER_48_2084
*9610 FILLER_48_2092
*9611 FILLER_48_2100
*9612 FILLER_48_2108
*9613 FILLER_48_2116
*9614 FILLER_48_2118
*9615 FILLER_48_2120
*9616 FILLER_48_2128
*9526 FILLER_48_24
*9527 FILLER_48_28
*9528 FILLER_48_31
*9524 FILLER_48_8
*9617 FILLER_49_0
*9624 FILLER_49_1549
*9625 FILLER_49_1557
*9626 FILLER_49_1565
*9627 FILLER_49_1573
*9628 FILLER_49_1581
*9629 FILLER_49_1589
*9630 FILLER_49_1597
*9619 FILLER_49_16
*9631 FILLER_49_1605
*9632 FILLER_49_1610
*9633 FILLER_49_1618
*9634 FILLER_49_1626
*9635 FILLER_49_1634
*9636 FILLER_49_1642
*9637 FILLER_49_1650
*9638 FILLER_49_1658
*9639 FILLER_49_1666
*9640 FILLER_49_1668
*9641 FILLER_49_1670
*9642 FILLER_49_1678
*9643 FILLER_49_1686
*9644 FILLER_49_1694
*9645 FILLER_49_1702
*9646 FILLER_49_1710
*9647 FILLER_49_1718
*9648 FILLER_49_1726
*9649 FILLER_49_1728
*9650 FILLER_49_1730
*9651 FILLER_49_1738
*9652 FILLER_49_1746
*9653 FILLER_49_1754
*9654 FILLER_49_1762
*9655 FILLER_49_1770
*9656 FILLER_49_1778
*9657 FILLER_49_1786
*9658 FILLER_49_1788
*9659 FILLER_49_1790
*9660 FILLER_49_1798
*9661 FILLER_49_1806
*9662 FILLER_49_1814
*9663 FILLER_49_1822
*9664 FILLER_49_1830
*9665 FILLER_49_1838
*9666 FILLER_49_1846
*9667 FILLER_49_1848
*9668 FILLER_49_1850
*9669 FILLER_49_1858
*9670 FILLER_49_1866
*9671 FILLER_49_1874
*9672 FILLER_49_1882
*9673 FILLER_49_1890
*9674 FILLER_49_1898
*9675 FILLER_49_1906
*9676 FILLER_49_1908
*9677 FILLER_49_1910
*9678 FILLER_49_1918
*9679 FILLER_49_1926
*9680 FILLER_49_1934
*9681 FILLER_49_1942
*9682 FILLER_49_1950
*9683 FILLER_49_1958
*9684 FILLER_49_1966
*9685 FILLER_49_1968
*9686 FILLER_49_1970
*9687 FILLER_49_1978
*9688 FILLER_49_1986
*9689 FILLER_49_1994
*9690 FILLER_49_2002
*9691 FILLER_49_2010
*9692 FILLER_49_2018
*9693 FILLER_49_2026
*9694 FILLER_49_2028
*9695 FILLER_49_2030
*9696 FILLER_49_2038
*9697 FILLER_49_2046
*9698 FILLER_49_2054
*9699 FILLER_49_2062
*9700 FILLER_49_2070
*9701 FILLER_49_2078
*9702 FILLER_49_2086
*9703 FILLER_49_2088
*9704 FILLER_49_2090
*9705 FILLER_49_2098
*9706 FILLER_49_2106
*9707 FILLER_49_2114
*9708 FILLER_49_2122
*9620 FILLER_49_24
*9621 FILLER_49_32
*9622 FILLER_49_36
*9623 FILLER_49_38
*9618 FILLER_49_8
*4942 FILLER_4_0
*5093 FILLER_4_1007
*5094 FILLER_4_1015
*5095 FILLER_4_1023
*5096 FILLER_4_1031
*5097 FILLER_4_1039
*5098 FILLER_4_1047
*5099 FILLER_4_1049
*5100 FILLER_4_1051
*5101 FILLER_4_1059
*5102 FILLER_4_1067
*4958 FILLER_4_107
*5103 FILLER_4_1075
*5104 FILLER_4_1083
*5105 FILLER_4_1091
*5106 FILLER_4_1099
*5107 FILLER_4_1107
*5108 FILLER_4_1109
*5109 FILLER_4_1111
*5110 FILLER_4_1119
*5111 FILLER_4_1127
*5112 FILLER_4_1135
*5113 FILLER_4_1143
*4959 FILLER_4_115
*5114 FILLER_4_1151
*5115 FILLER_4_1159
*5116 FILLER_4_1167
*5117 FILLER_4_1169
*5118 FILLER_4_1171
*5119 FILLER_4_1179
*5120 FILLER_4_1187
*5121 FILLER_4_1195
*5122 FILLER_4_1203
*5123 FILLER_4_1211
*5124 FILLER_4_1219
*5125 FILLER_4_1227
*5126 FILLER_4_1229
*4960 FILLER_4_123
*5127 FILLER_4_1231
*5128 FILLER_4_1239
*5129 FILLER_4_1247
*5130 FILLER_4_1255
*5131 FILLER_4_1263
*5132 FILLER_4_1271
*5133 FILLER_4_1279
*5134 FILLER_4_1287
*5135 FILLER_4_1289
*5136 FILLER_4_1291
*5137 FILLER_4_1299
*5138 FILLER_4_1307
*4961 FILLER_4_131
*5139 FILLER_4_1315
*5140 FILLER_4_1323
*5141 FILLER_4_1331
*5142 FILLER_4_1339
*5143 FILLER_4_1347
*5144 FILLER_4_1349
*5145 FILLER_4_1351
*5146 FILLER_4_1359
*5147 FILLER_4_1367
*5148 FILLER_4_1375
*5149 FILLER_4_1383
*4962 FILLER_4_139
*5150 FILLER_4_1391
*5151 FILLER_4_1399
*5152 FILLER_4_1407
*5153 FILLER_4_1409
*5154 FILLER_4_1411
*5155 FILLER_4_1419
*5156 FILLER_4_1427
*5157 FILLER_4_1435
*5158 FILLER_4_1443
*5159 FILLER_4_1451
*5160 FILLER_4_1459
*5161 FILLER_4_1467
*5162 FILLER_4_1469
*4963 FILLER_4_147
*5163 FILLER_4_1471
*5164 FILLER_4_1479
*5165 FILLER_4_1487
*4964 FILLER_4_149
*5166 FILLER_4_1495
*5167 FILLER_4_1503
*4965 FILLER_4_151
*5168 FILLER_4_1511
*5169 FILLER_4_1519
*5170 FILLER_4_1527
*5171 FILLER_4_1529
*5172 FILLER_4_1531
*5173 FILLER_4_1539
*5174 FILLER_4_1547
*5175 FILLER_4_1555
*5176 FILLER_4_1563
*5177 FILLER_4_1571
*5178 FILLER_4_1579
*5179 FILLER_4_1587
*5180 FILLER_4_1589
*4966 FILLER_4_159
*5181 FILLER_4_1591
*5182 FILLER_4_1599
*4944 FILLER_4_16
*5183 FILLER_4_1607
*5184 FILLER_4_1615
*5185 FILLER_4_1623
*5186 FILLER_4_1631
*5187 FILLER_4_1639
*5188 FILLER_4_1647
*5189 FILLER_4_1649
*5190 FILLER_4_1651
*5191 FILLER_4_1659
*5192 FILLER_4_1667
*4967 FILLER_4_167
*5193 FILLER_4_1675
*5194 FILLER_4_1683
*5195 FILLER_4_1691
*5196 FILLER_4_1699
*5197 FILLER_4_1707
*5198 FILLER_4_1709
*5199 FILLER_4_1711
*5200 FILLER_4_1719
*5201 FILLER_4_1727
*5202 FILLER_4_1735
*5203 FILLER_4_1743
*4968 FILLER_4_175
*5204 FILLER_4_1751
*5205 FILLER_4_1759
*5206 FILLER_4_1767
*5207 FILLER_4_1769
*5208 FILLER_4_1771
*5209 FILLER_4_1779
*5210 FILLER_4_1787
*5211 FILLER_4_1795
*5212 FILLER_4_1803
*5213 FILLER_4_1811
*5214 FILLER_4_1819
*5215 FILLER_4_1827
*5216 FILLER_4_1829
*4969 FILLER_4_183
*5217 FILLER_4_1831
*5218 FILLER_4_1839
*5219 FILLER_4_1847
*5220 FILLER_4_1855
*5221 FILLER_4_1863
*5222 FILLER_4_1871
*5223 FILLER_4_1879
*5224 FILLER_4_1887
*5225 FILLER_4_1889
*5226 FILLER_4_1891
*5227 FILLER_4_1899
*5228 FILLER_4_1907
*4970 FILLER_4_191
*5229 FILLER_4_1915
*5230 FILLER_4_1923
*5231 FILLER_4_1931
*5232 FILLER_4_1939
*5233 FILLER_4_1947
*5234 FILLER_4_1949
*5235 FILLER_4_1951
*5236 FILLER_4_1959
*5237 FILLER_4_1967
*5238 FILLER_4_1975
*5239 FILLER_4_1983
*4971 FILLER_4_199
*5240 FILLER_4_1991
*5241 FILLER_4_1999
*5242 FILLER_4_2007
*5243 FILLER_4_2009
*5244 FILLER_4_2011
*5245 FILLER_4_2019
*5246 FILLER_4_2027
*5247 FILLER_4_2035
*5248 FILLER_4_2043
*5249 FILLER_4_2051
*5250 FILLER_4_2059
*5251 FILLER_4_2067
*5252 FILLER_4_2069
*4972 FILLER_4_207
*5253 FILLER_4_2071
*5254 FILLER_4_2079
*5255 FILLER_4_2087
*4973 FILLER_4_209
*5256 FILLER_4_2095
*5257 FILLER_4_2103
*4974 FILLER_4_211
*5258 FILLER_4_2111
*5259 FILLER_4_2119
*5260 FILLER_4_2127
*5261 FILLER_4_2129
*4975 FILLER_4_219
*4976 FILLER_4_227
*4977 FILLER_4_235
*4945 FILLER_4_24
*4978 FILLER_4_243
*4979 FILLER_4_251
*4980 FILLER_4_259
*4981 FILLER_4_267
*4982 FILLER_4_269
*4983 FILLER_4_271
*4984 FILLER_4_279
*4946 FILLER_4_28
*4985 FILLER_4_287
*4986 FILLER_4_295
*4987 FILLER_4_303
*4947 FILLER_4_31
*4988 FILLER_4_311
*4989 FILLER_4_319
*4990 FILLER_4_327
*4991 FILLER_4_329
*4992 FILLER_4_331
*4993 FILLER_4_339
*4994 FILLER_4_347
*4995 FILLER_4_355
*4996 FILLER_4_363
*4997 FILLER_4_371
*4998 FILLER_4_379
*4999 FILLER_4_387
*5000 FILLER_4_389
*4948 FILLER_4_39
*5001 FILLER_4_391
*5002 FILLER_4_399
*5003 FILLER_4_407
*5004 FILLER_4_415
*5005 FILLER_4_423
*5006 FILLER_4_431
*5007 FILLER_4_439
*5008 FILLER_4_447
*5009 FILLER_4_449
*5010 FILLER_4_451
*5011 FILLER_4_459
*5012 FILLER_4_467
*4949 FILLER_4_47
*5013 FILLER_4_475
*5014 FILLER_4_483
*5015 FILLER_4_491
*5016 FILLER_4_499
*5017 FILLER_4_507
*5018 FILLER_4_509
*5019 FILLER_4_511
*5020 FILLER_4_519
*5021 FILLER_4_527
*5022 FILLER_4_535
*5023 FILLER_4_543
*4950 FILLER_4_55
*5024 FILLER_4_551
*5025 FILLER_4_559
*5026 FILLER_4_567
*5027 FILLER_4_569
*5028 FILLER_4_571
*5029 FILLER_4_579
*5030 FILLER_4_587
*5031 FILLER_4_595
*5032 FILLER_4_603
*5033 FILLER_4_611
*5034 FILLER_4_619
*5035 FILLER_4_627
*5036 FILLER_4_629
*4951 FILLER_4_63
*5037 FILLER_4_631
*5038 FILLER_4_639
*5039 FILLER_4_647
*5040 FILLER_4_655
*5041 FILLER_4_663
*5042 FILLER_4_671
*5043 FILLER_4_679
*5044 FILLER_4_687
*5045 FILLER_4_689
*5046 FILLER_4_691
*5047 FILLER_4_699
*5048 FILLER_4_707
*4952 FILLER_4_71
*5049 FILLER_4_715
*5050 FILLER_4_723
*5051 FILLER_4_731
*5052 FILLER_4_739
*5053 FILLER_4_747
*5054 FILLER_4_749
*5055 FILLER_4_751
*5056 FILLER_4_759
*5057 FILLER_4_767
*5058 FILLER_4_775
*5059 FILLER_4_783
*4953 FILLER_4_79
*5060 FILLER_4_791
*5061 FILLER_4_799
*4943 FILLER_4_8
*5062 FILLER_4_807
*5063 FILLER_4_809
*5064 FILLER_4_811
*5065 FILLER_4_819
*5066 FILLER_4_827
*5067 FILLER_4_835
*5068 FILLER_4_843
*5069 FILLER_4_851
*5070 FILLER_4_859
*5071 FILLER_4_867
*5072 FILLER_4_869
*4954 FILLER_4_87
*5073 FILLER_4_871
*5074 FILLER_4_879
*5075 FILLER_4_887
*4955 FILLER_4_89
*5076 FILLER_4_895
*5077 FILLER_4_903
*4956 FILLER_4_91
*5078 FILLER_4_911
*5079 FILLER_4_919
*5080 FILLER_4_927
*5081 FILLER_4_929
*5082 FILLER_4_931
*5083 FILLER_4_939
*5084 FILLER_4_947
*5085 FILLER_4_955
*5086 FILLER_4_963
*5087 FILLER_4_971
*5088 FILLER_4_979
*5089 FILLER_4_987
*5090 FILLER_4_989
*4957 FILLER_4_99
*5091 FILLER_4_991
*5092 FILLER_4_999
*9709 FILLER_50_0
*9715 FILLER_50_1549
*9716 FILLER_50_1557
*9717 FILLER_50_1565
*9718 FILLER_50_1573
*9719 FILLER_50_1577
*9720 FILLER_50_1580
*9721 FILLER_50_1588
*9722 FILLER_50_1596
*9711 FILLER_50_16
*9723 FILLER_50_1604
*9724 FILLER_50_1612
*9725 FILLER_50_1620
*9726 FILLER_50_1628
*9727 FILLER_50_1636
*9728 FILLER_50_1638
*9729 FILLER_50_1640
*9730 FILLER_50_1648
*9731 FILLER_50_1656
*9732 FILLER_50_1664
*9733 FILLER_50_1672
*9734 FILLER_50_1680
*9735 FILLER_50_1688
*9736 FILLER_50_1696
*9737 FILLER_50_1698
*9738 FILLER_50_1700
*9739 FILLER_50_1708
*9740 FILLER_50_1716
*9741 FILLER_50_1724
*9742 FILLER_50_1732
*9743 FILLER_50_1740
*9744 FILLER_50_1748
*9745 FILLER_50_1756
*9746 FILLER_50_1758
*9747 FILLER_50_1760
*9748 FILLER_50_1768
*9749 FILLER_50_1776
*9750 FILLER_50_1784
*9751 FILLER_50_1792
*9752 FILLER_50_1800
*9753 FILLER_50_1808
*9754 FILLER_50_1816
*9755 FILLER_50_1818
*9756 FILLER_50_1820
*9757 FILLER_50_1828
*9758 FILLER_50_1836
*9759 FILLER_50_1844
*9760 FILLER_50_1852
*9761 FILLER_50_1860
*9762 FILLER_50_1868
*9763 FILLER_50_1876
*9764 FILLER_50_1878
*9765 FILLER_50_1880
*9766 FILLER_50_1888
*9767 FILLER_50_1896
*9768 FILLER_50_1904
*9769 FILLER_50_1912
*9770 FILLER_50_1920
*9771 FILLER_50_1928
*9772 FILLER_50_1936
*9773 FILLER_50_1938
*9774 FILLER_50_1940
*9775 FILLER_50_1948
*9776 FILLER_50_1956
*9777 FILLER_50_1964
*9778 FILLER_50_1972
*9779 FILLER_50_1980
*9780 FILLER_50_1988
*9781 FILLER_50_1996
*9782 FILLER_50_1998
*9783 FILLER_50_2000
*9784 FILLER_50_2008
*9785 FILLER_50_2016
*9786 FILLER_50_2024
*9787 FILLER_50_2032
*9788 FILLER_50_2040
*9789 FILLER_50_2048
*9790 FILLER_50_2056
*9791 FILLER_50_2058
*9792 FILLER_50_2060
*9793 FILLER_50_2068
*9794 FILLER_50_2076
*9795 FILLER_50_2084
*9796 FILLER_50_2092
*9797 FILLER_50_2100
*9798 FILLER_50_2108
*9799 FILLER_50_2116
*9800 FILLER_50_2118
*9801 FILLER_50_2120
*9802 FILLER_50_2128
*9712 FILLER_50_24
*9713 FILLER_50_28
*9714 FILLER_50_31
*9710 FILLER_50_8
*9803 FILLER_51_0
*9810 FILLER_51_1549
*9811 FILLER_51_1557
*9812 FILLER_51_1565
*9813 FILLER_51_1573
*9814 FILLER_51_1581
*9815 FILLER_51_1589
*9816 FILLER_51_1597
*9805 FILLER_51_16
*9817 FILLER_51_1605
*9818 FILLER_51_1610
*9819 FILLER_51_1618
*9820 FILLER_51_1626
*9821 FILLER_51_1634
*9822 FILLER_51_1642
*9823 FILLER_51_1650
*9824 FILLER_51_1658
*9825 FILLER_51_1666
*9826 FILLER_51_1668
*9827 FILLER_51_1670
*9828 FILLER_51_1678
*9829 FILLER_51_1686
*9830 FILLER_51_1694
*9831 FILLER_51_1702
*9832 FILLER_51_1710
*9833 FILLER_51_1718
*9834 FILLER_51_1726
*9835 FILLER_51_1728
*9836 FILLER_51_1730
*9837 FILLER_51_1738
*9838 FILLER_51_1746
*9839 FILLER_51_1754
*9840 FILLER_51_1762
*9841 FILLER_51_1770
*9842 FILLER_51_1778
*9843 FILLER_51_1786
*9844 FILLER_51_1788
*9845 FILLER_51_1790
*9846 FILLER_51_1798
*9847 FILLER_51_1806
*9848 FILLER_51_1814
*9849 FILLER_51_1822
*9850 FILLER_51_1830
*9851 FILLER_51_1838
*9852 FILLER_51_1846
*9853 FILLER_51_1848
*9854 FILLER_51_1850
*9855 FILLER_51_1858
*9856 FILLER_51_1866
*9857 FILLER_51_1874
*9858 FILLER_51_1882
*9859 FILLER_51_1890
*9860 FILLER_51_1898
*9861 FILLER_51_1906
*9862 FILLER_51_1908
*9863 FILLER_51_1910
*9864 FILLER_51_1918
*9865 FILLER_51_1926
*9866 FILLER_51_1934
*9867 FILLER_51_1942
*9868 FILLER_51_1950
*9869 FILLER_51_1958
*9870 FILLER_51_1966
*9871 FILLER_51_1968
*9872 FILLER_51_1970
*9873 FILLER_51_1978
*9874 FILLER_51_1986
*9875 FILLER_51_1994
*9876 FILLER_51_2002
*9877 FILLER_51_2010
*9878 FILLER_51_2018
*9879 FILLER_51_2026
*9880 FILLER_51_2028
*9881 FILLER_51_2030
*9882 FILLER_51_2038
*9883 FILLER_51_2046
*9884 FILLER_51_2054
*9885 FILLER_51_2062
*9886 FILLER_51_2070
*9887 FILLER_51_2078
*9888 FILLER_51_2086
*9889 FILLER_51_2088
*9890 FILLER_51_2090
*9891 FILLER_51_2098
*9892 FILLER_51_2106
*9893 FILLER_51_2114
*9894 FILLER_51_2122
*9806 FILLER_51_24
*9807 FILLER_51_32
*9808 FILLER_51_36
*9809 FILLER_51_38
*9804 FILLER_51_8
*9895 FILLER_52_0
*9901 FILLER_52_1549
*9902 FILLER_52_1557
*9903 FILLER_52_1565
*9904 FILLER_52_1573
*9905 FILLER_52_1577
*9906 FILLER_52_1580
*9907 FILLER_52_1588
*9908 FILLER_52_1596
*9897 FILLER_52_16
*9909 FILLER_52_1604
*9910 FILLER_52_1612
*9911 FILLER_52_1620
*9912 FILLER_52_1628
*9913 FILLER_52_1636
*9914 FILLER_52_1638
*9915 FILLER_52_1640
*9916 FILLER_52_1648
*9917 FILLER_52_1656
*9918 FILLER_52_1664
*9919 FILLER_52_1672
*9920 FILLER_52_1680
*9921 FILLER_52_1688
*9922 FILLER_52_1696
*9923 FILLER_52_1698
*9924 FILLER_52_1700
*9925 FILLER_52_1708
*9926 FILLER_52_1716
*9927 FILLER_52_1724
*9928 FILLER_52_1732
*9929 FILLER_52_1740
*9930 FILLER_52_1748
*9931 FILLER_52_1756
*9932 FILLER_52_1758
*9933 FILLER_52_1760
*9934 FILLER_52_1768
*9935 FILLER_52_1776
*9936 FILLER_52_1784
*9937 FILLER_52_1792
*9938 FILLER_52_1800
*9939 FILLER_52_1808
*9940 FILLER_52_1816
*9941 FILLER_52_1818
*9942 FILLER_52_1820
*9943 FILLER_52_1828
*9944 FILLER_52_1836
*9945 FILLER_52_1844
*9946 FILLER_52_1852
*9947 FILLER_52_1860
*9948 FILLER_52_1868
*9949 FILLER_52_1876
*9950 FILLER_52_1878
*9951 FILLER_52_1880
*9952 FILLER_52_1888
*9953 FILLER_52_1896
*9954 FILLER_52_1904
*9955 FILLER_52_1912
*9956 FILLER_52_1920
*9957 FILLER_52_1928
*9958 FILLER_52_1936
*9959 FILLER_52_1938
*9960 FILLER_52_1940
*9961 FILLER_52_1948
*9962 FILLER_52_1956
*9963 FILLER_52_1964
*9964 FILLER_52_1972
*9965 FILLER_52_1980
*9966 FILLER_52_1988
*9967 FILLER_52_1996
*9968 FILLER_52_1998
*9969 FILLER_52_2000
*9970 FILLER_52_2008
*9971 FILLER_52_2016
*9972 FILLER_52_2024
*9973 FILLER_52_2032
*9974 FILLER_52_2040
*9975 FILLER_52_2048
*9976 FILLER_52_2056
*9977 FILLER_52_2058
*9978 FILLER_52_2060
*9979 FILLER_52_2068
*9980 FILLER_52_2076
*9981 FILLER_52_2084
*9982 FILLER_52_2092
*9983 FILLER_52_2100
*9984 FILLER_52_2108
*9985 FILLER_52_2116
*9986 FILLER_52_2118
*9987 FILLER_52_2120
*9988 FILLER_52_2128
*9898 FILLER_52_24
*9899 FILLER_52_28
*9900 FILLER_52_31
*9896 FILLER_52_8
*9989 FILLER_53_0
*9996 FILLER_53_1549
*9997 FILLER_53_1557
*9998 FILLER_53_1565
*9999 FILLER_53_1573
*10000 FILLER_53_1581
*10001 FILLER_53_1589
*10002 FILLER_53_1597
*9991 FILLER_53_16
*10003 FILLER_53_1605
*10004 FILLER_53_1610
*10005 FILLER_53_1618
*10006 FILLER_53_1626
*10007 FILLER_53_1634
*10008 FILLER_53_1642
*10009 FILLER_53_1650
*10010 FILLER_53_1658
*10011 FILLER_53_1666
*10012 FILLER_53_1668
*10013 FILLER_53_1670
*10014 FILLER_53_1678
*10015 FILLER_53_1686
*10016 FILLER_53_1694
*10017 FILLER_53_1702
*10018 FILLER_53_1710
*10019 FILLER_53_1718
*10020 FILLER_53_1726
*10021 FILLER_53_1728
*10022 FILLER_53_1730
*10023 FILLER_53_1738
*10024 FILLER_53_1746
*10025 FILLER_53_1754
*10026 FILLER_53_1762
*10027 FILLER_53_1770
*10028 FILLER_53_1778
*10029 FILLER_53_1786
*10030 FILLER_53_1788
*10031 FILLER_53_1790
*10032 FILLER_53_1798
*10033 FILLER_53_1806
*10034 FILLER_53_1814
*10035 FILLER_53_1822
*10036 FILLER_53_1830
*10037 FILLER_53_1838
*10038 FILLER_53_1846
*10039 FILLER_53_1848
*10040 FILLER_53_1850
*10041 FILLER_53_1858
*10042 FILLER_53_1866
*10043 FILLER_53_1874
*10044 FILLER_53_1882
*10045 FILLER_53_1890
*10046 FILLER_53_1898
*10047 FILLER_53_1906
*10048 FILLER_53_1908
*10049 FILLER_53_1910
*10050 FILLER_53_1918
*10051 FILLER_53_1926
*10052 FILLER_53_1934
*10053 FILLER_53_1942
*10054 FILLER_53_1950
*10055 FILLER_53_1958
*10056 FILLER_53_1966
*10057 FILLER_53_1968
*10058 FILLER_53_1970
*10059 FILLER_53_1978
*10060 FILLER_53_1986
*10061 FILLER_53_1994
*10062 FILLER_53_2002
*10063 FILLER_53_2010
*10064 FILLER_53_2018
*10065 FILLER_53_2026
*10066 FILLER_53_2028
*10067 FILLER_53_2030
*10068 FILLER_53_2038
*10069 FILLER_53_2046
*10070 FILLER_53_2054
*10071 FILLER_53_2062
*10072 FILLER_53_2070
*10073 FILLER_53_2078
*10074 FILLER_53_2086
*10075 FILLER_53_2088
*10076 FILLER_53_2090
*10077 FILLER_53_2098
*10078 FILLER_53_2106
*10079 FILLER_53_2114
*10080 FILLER_53_2122
*9992 FILLER_53_24
*9993 FILLER_53_32
*9994 FILLER_53_36
*9995 FILLER_53_38
*9990 FILLER_53_8
*10081 FILLER_54_0
*10087 FILLER_54_1549
*10088 FILLER_54_1557
*10089 FILLER_54_1565
*10090 FILLER_54_1573
*10091 FILLER_54_1577
*10092 FILLER_54_1580
*10093 FILLER_54_1588
*10094 FILLER_54_1596
*10083 FILLER_54_16
*10095 FILLER_54_1604
*10096 FILLER_54_1612
*10097 FILLER_54_1620
*10098 FILLER_54_1628
*10099 FILLER_54_1636
*10100 FILLER_54_1638
*10101 FILLER_54_1640
*10102 FILLER_54_1648
*10103 FILLER_54_1656
*10104 FILLER_54_1664
*10105 FILLER_54_1672
*10106 FILLER_54_1680
*10107 FILLER_54_1688
*10108 FILLER_54_1696
*10109 FILLER_54_1698
*10110 FILLER_54_1700
*10111 FILLER_54_1708
*10112 FILLER_54_1716
*10113 FILLER_54_1724
*10114 FILLER_54_1732
*10115 FILLER_54_1740
*10116 FILLER_54_1748
*10117 FILLER_54_1756
*10118 FILLER_54_1758
*10119 FILLER_54_1760
*10120 FILLER_54_1768
*10121 FILLER_54_1776
*10122 FILLER_54_1784
*10123 FILLER_54_1792
*10124 FILLER_54_1800
*10125 FILLER_54_1808
*10126 FILLER_54_1816
*10127 FILLER_54_1818
*10128 FILLER_54_1820
*10129 FILLER_54_1828
*10130 FILLER_54_1836
*10131 FILLER_54_1844
*10132 FILLER_54_1852
*10133 FILLER_54_1860
*10134 FILLER_54_1868
*10135 FILLER_54_1876
*10136 FILLER_54_1878
*10137 FILLER_54_1880
*10138 FILLER_54_1888
*10139 FILLER_54_1896
*10140 FILLER_54_1904
*10141 FILLER_54_1912
*10142 FILLER_54_1920
*10143 FILLER_54_1928
*10144 FILLER_54_1936
*10145 FILLER_54_1938
*10146 FILLER_54_1940
*10147 FILLER_54_1948
*10148 FILLER_54_1956
*10149 FILLER_54_1964
*10150 FILLER_54_1972
*10151 FILLER_54_1980
*10152 FILLER_54_1988
*10153 FILLER_54_1996
*10154 FILLER_54_1998
*10155 FILLER_54_2000
*10156 FILLER_54_2008
*10157 FILLER_54_2016
*10158 FILLER_54_2024
*10159 FILLER_54_2032
*10160 FILLER_54_2040
*10161 FILLER_54_2048
*10162 FILLER_54_2056
*10163 FILLER_54_2058
*10164 FILLER_54_2060
*10165 FILLER_54_2068
*10166 FILLER_54_2076
*10167 FILLER_54_2084
*10168 FILLER_54_2092
*10169 FILLER_54_2100
*10170 FILLER_54_2108
*10171 FILLER_54_2116
*10172 FILLER_54_2118
*10173 FILLER_54_2120
*10174 FILLER_54_2128
*10084 FILLER_54_24
*10085 FILLER_54_28
*10086 FILLER_54_31
*10082 FILLER_54_8
*10175 FILLER_55_0
*10182 FILLER_55_1549
*10183 FILLER_55_1557
*10184 FILLER_55_1565
*10185 FILLER_55_1573
*10186 FILLER_55_1581
*10187 FILLER_55_1589
*10188 FILLER_55_1597
*10177 FILLER_55_16
*10189 FILLER_55_1605
*10190 FILLER_55_1610
*10191 FILLER_55_1618
*10192 FILLER_55_1626
*10193 FILLER_55_1634
*10194 FILLER_55_1642
*10195 FILLER_55_1650
*10196 FILLER_55_1658
*10197 FILLER_55_1666
*10198 FILLER_55_1668
*10199 FILLER_55_1670
*10200 FILLER_55_1678
*10201 FILLER_55_1686
*10202 FILLER_55_1694
*10203 FILLER_55_1702
*10204 FILLER_55_1710
*10205 FILLER_55_1718
*10206 FILLER_55_1726
*10207 FILLER_55_1728
*10208 FILLER_55_1730
*10209 FILLER_55_1738
*10210 FILLER_55_1746
*10211 FILLER_55_1754
*10212 FILLER_55_1762
*10213 FILLER_55_1770
*10214 FILLER_55_1778
*10215 FILLER_55_1786
*10216 FILLER_55_1788
*10217 FILLER_55_1790
*10218 FILLER_55_1798
*10219 FILLER_55_1806
*10220 FILLER_55_1814
*10221 FILLER_55_1822
*10222 FILLER_55_1830
*10223 FILLER_55_1838
*10224 FILLER_55_1846
*10225 FILLER_55_1848
*10226 FILLER_55_1850
*10227 FILLER_55_1858
*10228 FILLER_55_1866
*10229 FILLER_55_1874
*10230 FILLER_55_1882
*10231 FILLER_55_1890
*10232 FILLER_55_1898
*10233 FILLER_55_1906
*10234 FILLER_55_1908
*10235 FILLER_55_1910
*10236 FILLER_55_1918
*10237 FILLER_55_1926
*10238 FILLER_55_1934
*10239 FILLER_55_1942
*10240 FILLER_55_1950
*10241 FILLER_55_1958
*10242 FILLER_55_1966
*10243 FILLER_55_1968
*10244 FILLER_55_1970
*10245 FILLER_55_1978
*10246 FILLER_55_1986
*10247 FILLER_55_1994
*10248 FILLER_55_2002
*10249 FILLER_55_2010
*10250 FILLER_55_2018
*10251 FILLER_55_2026
*10252 FILLER_55_2028
*10253 FILLER_55_2030
*10254 FILLER_55_2038
*10255 FILLER_55_2046
*10256 FILLER_55_2054
*10257 FILLER_55_2062
*10258 FILLER_55_2070
*10259 FILLER_55_2078
*10260 FILLER_55_2086
*10261 FILLER_55_2088
*10262 FILLER_55_2090
*10263 FILLER_55_2098
*10264 FILLER_55_2106
*10265 FILLER_55_2114
*10266 FILLER_55_2122
*10178 FILLER_55_24
*10179 FILLER_55_32
*10180 FILLER_55_36
*10181 FILLER_55_38
*10176 FILLER_55_8
*10267 FILLER_56_0
*10273 FILLER_56_1549
*10274 FILLER_56_1557
*10275 FILLER_56_1565
*10276 FILLER_56_1573
*10277 FILLER_56_1577
*10278 FILLER_56_1580
*10279 FILLER_56_1588
*10280 FILLER_56_1596
*10269 FILLER_56_16
*10281 FILLER_56_1604
*10282 FILLER_56_1612
*10283 FILLER_56_1620
*10284 FILLER_56_1628
*10285 FILLER_56_1636
*10286 FILLER_56_1638
*10287 FILLER_56_1640
*10288 FILLER_56_1648
*10289 FILLER_56_1656
*10290 FILLER_56_1664
*10291 FILLER_56_1672
*10292 FILLER_56_1680
*10293 FILLER_56_1688
*10294 FILLER_56_1696
*10295 FILLER_56_1698
*10296 FILLER_56_1700
*10297 FILLER_56_1708
*10298 FILLER_56_1716
*10299 FILLER_56_1724
*10300 FILLER_56_1732
*10301 FILLER_56_1740
*10302 FILLER_56_1748
*10303 FILLER_56_1756
*10304 FILLER_56_1758
*10305 FILLER_56_1760
*10306 FILLER_56_1768
*10307 FILLER_56_1776
*10308 FILLER_56_1784
*10309 FILLER_56_1792
*10310 FILLER_56_1800
*10311 FILLER_56_1808
*10312 FILLER_56_1816
*10313 FILLER_56_1818
*10314 FILLER_56_1820
*10315 FILLER_56_1828
*10316 FILLER_56_1836
*10317 FILLER_56_1844
*10318 FILLER_56_1852
*10319 FILLER_56_1860
*10320 FILLER_56_1868
*10321 FILLER_56_1876
*10322 FILLER_56_1878
*10323 FILLER_56_1880
*10324 FILLER_56_1888
*10325 FILLER_56_1896
*10326 FILLER_56_1904
*10327 FILLER_56_1912
*10328 FILLER_56_1920
*10329 FILLER_56_1928
*10330 FILLER_56_1936
*10331 FILLER_56_1938
*10332 FILLER_56_1940
*10333 FILLER_56_1948
*10334 FILLER_56_1956
*10335 FILLER_56_1964
*10336 FILLER_56_1972
*10337 FILLER_56_1980
*10338 FILLER_56_1988
*10339 FILLER_56_1996
*10340 FILLER_56_1998
*10341 FILLER_56_2000
*10342 FILLER_56_2008
*10343 FILLER_56_2016
*10344 FILLER_56_2024
*10345 FILLER_56_2032
*10346 FILLER_56_2040
*10347 FILLER_56_2048
*10348 FILLER_56_2056
*10349 FILLER_56_2058
*10350 FILLER_56_2060
*10351 FILLER_56_2068
*10352 FILLER_56_2076
*10353 FILLER_56_2084
*10354 FILLER_56_2092
*10355 FILLER_56_2100
*10356 FILLER_56_2108
*10357 FILLER_56_2116
*10358 FILLER_56_2118
*10359 FILLER_56_2120
*10360 FILLER_56_2128
*10270 FILLER_56_24
*10271 FILLER_56_28
*10272 FILLER_56_31
*10268 FILLER_56_8
*10361 FILLER_57_0
*10368 FILLER_57_1549
*10369 FILLER_57_1557
*10370 FILLER_57_1565
*10371 FILLER_57_1573
*10372 FILLER_57_1581
*10373 FILLER_57_1589
*10374 FILLER_57_1597
*10363 FILLER_57_16
*10375 FILLER_57_1605
*10376 FILLER_57_1610
*10377 FILLER_57_1618
*10378 FILLER_57_1626
*10379 FILLER_57_1634
*10380 FILLER_57_1642
*10381 FILLER_57_1650
*10382 FILLER_57_1658
*10383 FILLER_57_1666
*10384 FILLER_57_1668
*10385 FILLER_57_1670
*10386 FILLER_57_1678
*10387 FILLER_57_1686
*10388 FILLER_57_1694
*10389 FILLER_57_1702
*10390 FILLER_57_1710
*10391 FILLER_57_1718
*10392 FILLER_57_1726
*10393 FILLER_57_1728
*10394 FILLER_57_1730
*10395 FILLER_57_1738
*10396 FILLER_57_1746
*10397 FILLER_57_1754
*10398 FILLER_57_1762
*10399 FILLER_57_1770
*10400 FILLER_57_1778
*10401 FILLER_57_1786
*10402 FILLER_57_1788
*10403 FILLER_57_1790
*10404 FILLER_57_1798
*10405 FILLER_57_1806
*10406 FILLER_57_1814
*10407 FILLER_57_1822
*10408 FILLER_57_1830
*10409 FILLER_57_1838
*10410 FILLER_57_1846
*10411 FILLER_57_1848
*10412 FILLER_57_1850
*10413 FILLER_57_1858
*10414 FILLER_57_1866
*10415 FILLER_57_1874
*10416 FILLER_57_1882
*10417 FILLER_57_1890
*10418 FILLER_57_1898
*10419 FILLER_57_1906
*10420 FILLER_57_1908
*10421 FILLER_57_1910
*10422 FILLER_57_1918
*10423 FILLER_57_1926
*10424 FILLER_57_1934
*10425 FILLER_57_1942
*10426 FILLER_57_1950
*10427 FILLER_57_1958
*10428 FILLER_57_1966
*10429 FILLER_57_1968
*10430 FILLER_57_1970
*10431 FILLER_57_1978
*10432 FILLER_57_1986
*10433 FILLER_57_1994
*10434 FILLER_57_2002
*10435 FILLER_57_2010
*10436 FILLER_57_2018
*10437 FILLER_57_2026
*10438 FILLER_57_2028
*10439 FILLER_57_2030
*10440 FILLER_57_2038
*10441 FILLER_57_2046
*10442 FILLER_57_2054
*10443 FILLER_57_2062
*10444 FILLER_57_2070
*10445 FILLER_57_2078
*10446 FILLER_57_2086
*10447 FILLER_57_2088
*10448 FILLER_57_2090
*10449 FILLER_57_2098
*10450 FILLER_57_2106
*10451 FILLER_57_2114
*10452 FILLER_57_2122
*10364 FILLER_57_24
*10365 FILLER_57_32
*10366 FILLER_57_36
*10367 FILLER_57_38
*10362 FILLER_57_8
*10453 FILLER_58_0
*10459 FILLER_58_1549
*10460 FILLER_58_1557
*10461 FILLER_58_1565
*10462 FILLER_58_1573
*10463 FILLER_58_1577
*10464 FILLER_58_1580
*10465 FILLER_58_1588
*10466 FILLER_58_1596
*10455 FILLER_58_16
*10467 FILLER_58_1604
*10468 FILLER_58_1612
*10469 FILLER_58_1620
*10470 FILLER_58_1628
*10471 FILLER_58_1636
*10472 FILLER_58_1638
*10473 FILLER_58_1640
*10474 FILLER_58_1648
*10475 FILLER_58_1656
*10476 FILLER_58_1664
*10477 FILLER_58_1672
*10478 FILLER_58_1680
*10479 FILLER_58_1688
*10480 FILLER_58_1696
*10481 FILLER_58_1698
*10482 FILLER_58_1700
*10483 FILLER_58_1708
*10484 FILLER_58_1716
*10485 FILLER_58_1724
*10486 FILLER_58_1732
*10487 FILLER_58_1740
*10488 FILLER_58_1748
*10489 FILLER_58_1756
*10490 FILLER_58_1758
*10491 FILLER_58_1760
*10492 FILLER_58_1768
*10493 FILLER_58_1776
*10494 FILLER_58_1784
*10495 FILLER_58_1792
*10496 FILLER_58_1800
*10497 FILLER_58_1808
*10498 FILLER_58_1816
*10499 FILLER_58_1818
*10500 FILLER_58_1820
*10501 FILLER_58_1828
*10502 FILLER_58_1836
*10503 FILLER_58_1844
*10504 FILLER_58_1852
*10505 FILLER_58_1860
*10506 FILLER_58_1868
*10507 FILLER_58_1876
*10508 FILLER_58_1878
*10509 FILLER_58_1880
*10510 FILLER_58_1888
*10511 FILLER_58_1896
*10512 FILLER_58_1904
*10513 FILLER_58_1912
*10514 FILLER_58_1920
*10515 FILLER_58_1928
*10516 FILLER_58_1936
*10517 FILLER_58_1938
*10518 FILLER_58_1940
*10519 FILLER_58_1948
*10520 FILLER_58_1956
*10521 FILLER_58_1964
*10522 FILLER_58_1972
*10523 FILLER_58_1980
*10524 FILLER_58_1988
*10525 FILLER_58_1996
*10526 FILLER_58_1998
*10527 FILLER_58_2000
*10528 FILLER_58_2008
*10529 FILLER_58_2016
*10530 FILLER_58_2024
*10531 FILLER_58_2032
*10532 FILLER_58_2040
*10533 FILLER_58_2048
*10534 FILLER_58_2056
*10535 FILLER_58_2058
*10536 FILLER_58_2060
*10537 FILLER_58_2068
*10538 FILLER_58_2076
*10539 FILLER_58_2084
*10540 FILLER_58_2092
*10541 FILLER_58_2100
*10542 FILLER_58_2108
*10543 FILLER_58_2116
*10544 FILLER_58_2118
*10545 FILLER_58_2120
*10546 FILLER_58_2128
*10456 FILLER_58_24
*10457 FILLER_58_28
*10458 FILLER_58_31
*10454 FILLER_58_8
*10547 FILLER_59_0
*10554 FILLER_59_1549
*10555 FILLER_59_1557
*10556 FILLER_59_1565
*10557 FILLER_59_1573
*10558 FILLER_59_1581
*10559 FILLER_59_1589
*10560 FILLER_59_1597
*10549 FILLER_59_16
*10561 FILLER_59_1605
*10562 FILLER_59_1610
*10563 FILLER_59_1618
*10564 FILLER_59_1626
*10565 FILLER_59_1634
*10566 FILLER_59_1642
*10567 FILLER_59_1650
*10568 FILLER_59_1658
*10569 FILLER_59_1666
*10570 FILLER_59_1668
*10571 FILLER_59_1670
*10572 FILLER_59_1678
*10573 FILLER_59_1686
*10574 FILLER_59_1694
*10575 FILLER_59_1702
*10576 FILLER_59_1710
*10577 FILLER_59_1718
*10578 FILLER_59_1726
*10579 FILLER_59_1728
*10580 FILLER_59_1730
*10581 FILLER_59_1738
*10582 FILLER_59_1746
*10583 FILLER_59_1754
*10584 FILLER_59_1762
*10585 FILLER_59_1770
*10586 FILLER_59_1778
*10587 FILLER_59_1786
*10588 FILLER_59_1788
*10589 FILLER_59_1790
*10590 FILLER_59_1798
*10591 FILLER_59_1806
*10592 FILLER_59_1814
*10593 FILLER_59_1822
*10594 FILLER_59_1830
*10595 FILLER_59_1838
*10596 FILLER_59_1846
*10597 FILLER_59_1848
*10598 FILLER_59_1850
*10599 FILLER_59_1858
*10600 FILLER_59_1866
*10601 FILLER_59_1874
*10602 FILLER_59_1882
*10603 FILLER_59_1890
*10604 FILLER_59_1898
*10605 FILLER_59_1906
*10606 FILLER_59_1908
*10607 FILLER_59_1910
*10608 FILLER_59_1918
*10609 FILLER_59_1926
*10610 FILLER_59_1934
*10611 FILLER_59_1942
*10612 FILLER_59_1950
*10613 FILLER_59_1958
*10614 FILLER_59_1966
*10615 FILLER_59_1968
*10616 FILLER_59_1970
*10617 FILLER_59_1978
*10618 FILLER_59_1986
*10619 FILLER_59_1994
*10620 FILLER_59_2002
*10621 FILLER_59_2010
*10622 FILLER_59_2018
*10623 FILLER_59_2026
*10624 FILLER_59_2028
*10625 FILLER_59_2030
*10626 FILLER_59_2038
*10627 FILLER_59_2046
*10628 FILLER_59_2054
*10629 FILLER_59_2062
*10630 FILLER_59_2070
*10631 FILLER_59_2078
*10632 FILLER_59_2086
*10633 FILLER_59_2088
*10634 FILLER_59_2090
*10635 FILLER_59_2098
*10636 FILLER_59_2106
*10637 FILLER_59_2114
*10638 FILLER_59_2122
*10550 FILLER_59_24
*10551 FILLER_59_32
*10552 FILLER_59_36
*10553 FILLER_59_38
*10548 FILLER_59_8
*5262 FILLER_5_0
*5429 FILLER_5_1007
*5430 FILLER_5_1015
*5431 FILLER_5_1019
*5432 FILLER_5_1021
*5433 FILLER_5_1029
*5434 FILLER_5_1037
*5435 FILLER_5_1045
*5436 FILLER_5_1049
*5437 FILLER_5_1051
*5438 FILLER_5_1059
*5439 FILLER_5_1067
*5279 FILLER_5_107
*5440 FILLER_5_1075
*5441 FILLER_5_1079
*5442 FILLER_5_1081
*5443 FILLER_5_1089
*5444 FILLER_5_1097
*5445 FILLER_5_1105
*5446 FILLER_5_1109
*5447 FILLER_5_1111
*5448 FILLER_5_1119
*5449 FILLER_5_1127
*5450 FILLER_5_1135
*5451 FILLER_5_1139
*5452 FILLER_5_1141
*5453 FILLER_5_1149
*5280 FILLER_5_115
*5454 FILLER_5_1157
*5455 FILLER_5_1165
*5456 FILLER_5_1169
*5457 FILLER_5_1171
*5458 FILLER_5_1179
*5459 FILLER_5_1187
*5281 FILLER_5_119
*5460 FILLER_5_1195
*5461 FILLER_5_1199
*5462 FILLER_5_1201
*5463 FILLER_5_1209
*5282 FILLER_5_121
*5464 FILLER_5_1217
*5465 FILLER_5_1225
*5466 FILLER_5_1229
*5467 FILLER_5_1231
*5468 FILLER_5_1239
*5469 FILLER_5_1247
*5470 FILLER_5_1255
*5471 FILLER_5_1259
*5472 FILLER_5_1261
*5473 FILLER_5_1269
*5474 FILLER_5_1277
*5475 FILLER_5_1285
*5476 FILLER_5_1289
*5283 FILLER_5_129
*5477 FILLER_5_1291
*5478 FILLER_5_1299
*5479 FILLER_5_1307
*5480 FILLER_5_1315
*5481 FILLER_5_1319
*5482 FILLER_5_1321
*5483 FILLER_5_1329
*5484 FILLER_5_1337
*5485 FILLER_5_1345
*5486 FILLER_5_1349
*5487 FILLER_5_1351
*5488 FILLER_5_1359
*5489 FILLER_5_1367
*5284 FILLER_5_137
*5490 FILLER_5_1375
*5491 FILLER_5_1379
*5492 FILLER_5_1381
*5493 FILLER_5_1389
*5494 FILLER_5_1397
*5495 FILLER_5_1405
*5496 FILLER_5_1409
*5497 FILLER_5_1411
*5498 FILLER_5_1419
*5499 FILLER_5_1427
*5500 FILLER_5_1435
*5501 FILLER_5_1439
*5502 FILLER_5_1441
*5503 FILLER_5_1449
*5285 FILLER_5_145
*5504 FILLER_5_1457
*5505 FILLER_5_1465
*5506 FILLER_5_1469
*5507 FILLER_5_1471
*5508 FILLER_5_1479
*5509 FILLER_5_1487
*5286 FILLER_5_149
*5510 FILLER_5_1495
*5511 FILLER_5_1499
*5512 FILLER_5_1501
*5513 FILLER_5_1509
*5287 FILLER_5_151
*5514 FILLER_5_1517
*5515 FILLER_5_1525
*5516 FILLER_5_1529
*5517 FILLER_5_1531
*5518 FILLER_5_1539
*5519 FILLER_5_1547
*5520 FILLER_5_1555
*5521 FILLER_5_1559
*5522 FILLER_5_1561
*5523 FILLER_5_1569
*5524 FILLER_5_1577
*5525 FILLER_5_1585
*5526 FILLER_5_1589
*5288 FILLER_5_159
*5527 FILLER_5_1591
*5528 FILLER_5_1599
*5264 FILLER_5_16
*5529 FILLER_5_1607
*5530 FILLER_5_1615
*5531 FILLER_5_1619
*5532 FILLER_5_1621
*5533 FILLER_5_1629
*5534 FILLER_5_1637
*5535 FILLER_5_1645
*5536 FILLER_5_1649
*5537 FILLER_5_1651
*5538 FILLER_5_1659
*5539 FILLER_5_1667
*5289 FILLER_5_167
*5540 FILLER_5_1675
*5541 FILLER_5_1679
*5542 FILLER_5_1681
*5543 FILLER_5_1689
*5544 FILLER_5_1697
*5545 FILLER_5_1705
*5546 FILLER_5_1709
*5547 FILLER_5_1711
*5548 FILLER_5_1719
*5549 FILLER_5_1727
*5550 FILLER_5_1735
*5551 FILLER_5_1739
*5552 FILLER_5_1741
*5553 FILLER_5_1749
*5290 FILLER_5_175
*5554 FILLER_5_1757
*5555 FILLER_5_1765
*5556 FILLER_5_1769
*5557 FILLER_5_1771
*5558 FILLER_5_1779
*5559 FILLER_5_1787
*5291 FILLER_5_179
*5560 FILLER_5_1795
*5561 FILLER_5_1799
*5562 FILLER_5_1801
*5563 FILLER_5_1809
*5292 FILLER_5_181
*5564 FILLER_5_1817
*5565 FILLER_5_1825
*5566 FILLER_5_1829
*5567 FILLER_5_1831
*5568 FILLER_5_1839
*5569 FILLER_5_1847
*5570 FILLER_5_1855
*5571 FILLER_5_1859
*5572 FILLER_5_1861
*5573 FILLER_5_1869
*5574 FILLER_5_1877
*5575 FILLER_5_1885
*5576 FILLER_5_1889
*5293 FILLER_5_189
*5577 FILLER_5_1891
*5578 FILLER_5_1899
*5579 FILLER_5_1907
*5580 FILLER_5_1915
*5581 FILLER_5_1919
*5582 FILLER_5_1921
*5583 FILLER_5_1929
*5584 FILLER_5_1937
*5585 FILLER_5_1945
*5586 FILLER_5_1949
*5587 FILLER_5_1951
*5588 FILLER_5_1959
*5589 FILLER_5_1967
*5294 FILLER_5_197
*5590 FILLER_5_1975
*5591 FILLER_5_1979
*5592 FILLER_5_1981
*5593 FILLER_5_1989
*5594 FILLER_5_1997
*5595 FILLER_5_2005
*5596 FILLER_5_2009
*5597 FILLER_5_2011
*5598 FILLER_5_2019
*5599 FILLER_5_2027
*5600 FILLER_5_2035
*5601 FILLER_5_2039
*5602 FILLER_5_2041
*5603 FILLER_5_2049
*5295 FILLER_5_205
*5604 FILLER_5_2057
*5605 FILLER_5_2065
*5606 FILLER_5_2069
*5607 FILLER_5_2071
*5608 FILLER_5_2079
*5609 FILLER_5_2087
*5296 FILLER_5_209
*5610 FILLER_5_2095
*5611 FILLER_5_2099
*5612 FILLER_5_2101
*5613 FILLER_5_2109
*5297 FILLER_5_211
*5614 FILLER_5_2117
*5615 FILLER_5_2125
*5616 FILLER_5_2129
*5298 FILLER_5_219
*5299 FILLER_5_227
*5300 FILLER_5_235
*5301 FILLER_5_239
*5265 FILLER_5_24
*5302 FILLER_5_241
*5303 FILLER_5_249
*5304 FILLER_5_257
*5305 FILLER_5_265
*5306 FILLER_5_269
*5307 FILLER_5_271
*5308 FILLER_5_279
*5266 FILLER_5_28
*5309 FILLER_5_287
*5310 FILLER_5_295
*5311 FILLER_5_299
*5312 FILLER_5_301
*5313 FILLER_5_309
*5267 FILLER_5_31
*5314 FILLER_5_317
*5315 FILLER_5_325
*5316 FILLER_5_329
*5317 FILLER_5_331
*5318 FILLER_5_339
*5319 FILLER_5_347
*5320 FILLER_5_355
*5321 FILLER_5_359
*5322 FILLER_5_361
*5323 FILLER_5_369
*5324 FILLER_5_377
*5325 FILLER_5_385
*5326 FILLER_5_389
*5268 FILLER_5_39
*5327 FILLER_5_391
*5328 FILLER_5_399
*5329 FILLER_5_407
*5330 FILLER_5_415
*5331 FILLER_5_419
*5332 FILLER_5_421
*5333 FILLER_5_429
*5334 FILLER_5_437
*5335 FILLER_5_445
*5336 FILLER_5_449
*5337 FILLER_5_451
*5338 FILLER_5_459
*5339 FILLER_5_467
*5269 FILLER_5_47
*5340 FILLER_5_475
*5341 FILLER_5_479
*5342 FILLER_5_481
*5343 FILLER_5_489
*5344 FILLER_5_497
*5345 FILLER_5_505
*5346 FILLER_5_509
*5347 FILLER_5_511
*5348 FILLER_5_519
*5349 FILLER_5_527
*5350 FILLER_5_535
*5351 FILLER_5_539
*5352 FILLER_5_541
*5353 FILLER_5_549
*5270 FILLER_5_55
*5354 FILLER_5_557
*5355 FILLER_5_565
*5356 FILLER_5_569
*5357 FILLER_5_571
*5358 FILLER_5_579
*5359 FILLER_5_587
*5271 FILLER_5_59
*5360 FILLER_5_595
*5361 FILLER_5_599
*5362 FILLER_5_601
*5363 FILLER_5_609
*5272 FILLER_5_61
*5364 FILLER_5_617
*5365 FILLER_5_625
*5366 FILLER_5_629
*5367 FILLER_5_631
*5368 FILLER_5_639
*5369 FILLER_5_647
*5370 FILLER_5_655
*5371 FILLER_5_659
*5372 FILLER_5_661
*5373 FILLER_5_669
*5374 FILLER_5_677
*5375 FILLER_5_685
*5376 FILLER_5_689
*5273 FILLER_5_69
*5377 FILLER_5_691
*5378 FILLER_5_699
*5379 FILLER_5_707
*5380 FILLER_5_715
*5381 FILLER_5_719
*5382 FILLER_5_721
*5383 FILLER_5_729
*5384 FILLER_5_737
*5385 FILLER_5_745
*5386 FILLER_5_749
*5387 FILLER_5_751
*5388 FILLER_5_759
*5389 FILLER_5_767
*5274 FILLER_5_77
*5390 FILLER_5_775
*5391 FILLER_5_779
*5392 FILLER_5_781
*5393 FILLER_5_789
*5394 FILLER_5_797
*5263 FILLER_5_8
*5395 FILLER_5_805
*5396 FILLER_5_809
*5397 FILLER_5_811
*5398 FILLER_5_819
*5399 FILLER_5_827
*5400 FILLER_5_835
*5401 FILLER_5_839
*5402 FILLER_5_841
*5403 FILLER_5_849
*5275 FILLER_5_85
*5404 FILLER_5_857
*5405 FILLER_5_865
*5406 FILLER_5_869
*5407 FILLER_5_871
*5408 FILLER_5_879
*5409 FILLER_5_887
*5276 FILLER_5_89
*5410 FILLER_5_895
*5411 FILLER_5_899
*5412 FILLER_5_901
*5413 FILLER_5_909
*5277 FILLER_5_91
*5414 FILLER_5_917
*5415 FILLER_5_925
*5416 FILLER_5_929
*5417 FILLER_5_931
*5418 FILLER_5_939
*5419 FILLER_5_947
*5420 FILLER_5_955
*5421 FILLER_5_959
*5422 FILLER_5_961
*5423 FILLER_5_969
*5424 FILLER_5_977
*5425 FILLER_5_985
*5426 FILLER_5_989
*5278 FILLER_5_99
*5427 FILLER_5_991
*5428 FILLER_5_999
*10639 FILLER_60_0
*10645 FILLER_60_1549
*10646 FILLER_60_1557
*10647 FILLER_60_1565
*10648 FILLER_60_1573
*10649 FILLER_60_1577
*10650 FILLER_60_1580
*10651 FILLER_60_1588
*10652 FILLER_60_1596
*10641 FILLER_60_16
*10653 FILLER_60_1604
*10654 FILLER_60_1612
*10655 FILLER_60_1620
*10656 FILLER_60_1628
*10657 FILLER_60_1636
*10658 FILLER_60_1638
*10659 FILLER_60_1640
*10660 FILLER_60_1648
*10661 FILLER_60_1656
*10662 FILLER_60_1664
*10663 FILLER_60_1672
*10664 FILLER_60_1680
*10665 FILLER_60_1688
*10666 FILLER_60_1696
*10667 FILLER_60_1698
*10668 FILLER_60_1700
*10669 FILLER_60_1708
*10670 FILLER_60_1716
*10671 FILLER_60_1724
*10672 FILLER_60_1732
*10673 FILLER_60_1740
*10674 FILLER_60_1748
*10675 FILLER_60_1756
*10676 FILLER_60_1758
*10677 FILLER_60_1760
*10678 FILLER_60_1768
*10679 FILLER_60_1776
*10680 FILLER_60_1784
*10681 FILLER_60_1792
*10682 FILLER_60_1800
*10683 FILLER_60_1808
*10684 FILLER_60_1816
*10685 FILLER_60_1818
*10686 FILLER_60_1820
*10687 FILLER_60_1828
*10688 FILLER_60_1836
*10689 FILLER_60_1844
*10690 FILLER_60_1852
*10691 FILLER_60_1860
*10692 FILLER_60_1868
*10693 FILLER_60_1876
*10694 FILLER_60_1878
*10695 FILLER_60_1880
*10696 FILLER_60_1888
*10697 FILLER_60_1896
*10698 FILLER_60_1904
*10699 FILLER_60_1912
*10700 FILLER_60_1920
*10701 FILLER_60_1928
*10702 FILLER_60_1936
*10703 FILLER_60_1938
*10704 FILLER_60_1940
*10705 FILLER_60_1948
*10706 FILLER_60_1956
*10707 FILLER_60_1964
*10708 FILLER_60_1972
*10709 FILLER_60_1980
*10710 FILLER_60_1988
*10711 FILLER_60_1996
*10712 FILLER_60_1998
*10713 FILLER_60_2000
*10714 FILLER_60_2008
*10715 FILLER_60_2016
*10716 FILLER_60_2024
*10717 FILLER_60_2032
*10718 FILLER_60_2040
*10719 FILLER_60_2048
*10720 FILLER_60_2056
*10721 FILLER_60_2058
*10722 FILLER_60_2060
*10723 FILLER_60_2068
*10724 FILLER_60_2076
*10725 FILLER_60_2084
*10726 FILLER_60_2092
*10727 FILLER_60_2100
*10728 FILLER_60_2108
*10729 FILLER_60_2116
*10730 FILLER_60_2118
*10731 FILLER_60_2120
*10732 FILLER_60_2128
*10642 FILLER_60_24
*10643 FILLER_60_28
*10644 FILLER_60_31
*10640 FILLER_60_8
*10733 FILLER_61_0
*10740 FILLER_61_1549
*10741 FILLER_61_1557
*10742 FILLER_61_1565
*10743 FILLER_61_1573
*10744 FILLER_61_1581
*10745 FILLER_61_1589
*10746 FILLER_61_1597
*10735 FILLER_61_16
*10747 FILLER_61_1605
*10748 FILLER_61_1610
*10749 FILLER_61_1618
*10750 FILLER_61_1626
*10751 FILLER_61_1634
*10752 FILLER_61_1642
*10753 FILLER_61_1650
*10754 FILLER_61_1658
*10755 FILLER_61_1666
*10756 FILLER_61_1668
*10757 FILLER_61_1670
*10758 FILLER_61_1678
*10759 FILLER_61_1686
*10760 FILLER_61_1694
*10761 FILLER_61_1702
*10762 FILLER_61_1710
*10763 FILLER_61_1718
*10764 FILLER_61_1726
*10765 FILLER_61_1728
*10766 FILLER_61_1730
*10767 FILLER_61_1738
*10768 FILLER_61_1746
*10769 FILLER_61_1754
*10770 FILLER_61_1762
*10771 FILLER_61_1770
*10772 FILLER_61_1778
*10773 FILLER_61_1786
*10774 FILLER_61_1788
*10775 FILLER_61_1790
*10776 FILLER_61_1798
*10777 FILLER_61_1806
*10778 FILLER_61_1814
*10779 FILLER_61_1822
*10780 FILLER_61_1830
*10781 FILLER_61_1838
*10782 FILLER_61_1846
*10783 FILLER_61_1848
*10784 FILLER_61_1850
*10785 FILLER_61_1858
*10786 FILLER_61_1866
*10787 FILLER_61_1874
*10788 FILLER_61_1882
*10789 FILLER_61_1890
*10790 FILLER_61_1898
*10791 FILLER_61_1906
*10792 FILLER_61_1908
*10793 FILLER_61_1910
*10794 FILLER_61_1918
*10795 FILLER_61_1926
*10796 FILLER_61_1934
*10797 FILLER_61_1942
*10798 FILLER_61_1950
*10799 FILLER_61_1958
*10800 FILLER_61_1966
*10801 FILLER_61_1968
*10802 FILLER_61_1970
*10803 FILLER_61_1978
*10804 FILLER_61_1986
*10805 FILLER_61_1994
*10806 FILLER_61_2002
*10807 FILLER_61_2010
*10808 FILLER_61_2018
*10809 FILLER_61_2026
*10810 FILLER_61_2028
*10811 FILLER_61_2030
*10812 FILLER_61_2038
*10813 FILLER_61_2046
*10814 FILLER_61_2054
*10815 FILLER_61_2062
*10816 FILLER_61_2070
*10817 FILLER_61_2078
*10818 FILLER_61_2086
*10819 FILLER_61_2088
*10820 FILLER_61_2090
*10821 FILLER_61_2098
*10822 FILLER_61_2106
*10823 FILLER_61_2114
*10824 FILLER_61_2122
*10736 FILLER_61_24
*10737 FILLER_61_32
*10738 FILLER_61_36
*10739 FILLER_61_38
*10734 FILLER_61_8
*10825 FILLER_62_0
*10831 FILLER_62_1549
*10832 FILLER_62_1557
*10833 FILLER_62_1565
*10834 FILLER_62_1573
*10835 FILLER_62_1577
*10836 FILLER_62_1580
*10837 FILLER_62_1588
*10838 FILLER_62_1596
*10827 FILLER_62_16
*10839 FILLER_62_1604
*10840 FILLER_62_1612
*10841 FILLER_62_1620
*10842 FILLER_62_1628
*10843 FILLER_62_1636
*10844 FILLER_62_1638
*10845 FILLER_62_1640
*10846 FILLER_62_1648
*10847 FILLER_62_1656
*10848 FILLER_62_1664
*10849 FILLER_62_1672
*10850 FILLER_62_1680
*10851 FILLER_62_1688
*10852 FILLER_62_1696
*10853 FILLER_62_1698
*10854 FILLER_62_1700
*10855 FILLER_62_1708
*10856 FILLER_62_1716
*10857 FILLER_62_1724
*10858 FILLER_62_1732
*10859 FILLER_62_1740
*10860 FILLER_62_1748
*10861 FILLER_62_1756
*10862 FILLER_62_1758
*10863 FILLER_62_1760
*10864 FILLER_62_1768
*10865 FILLER_62_1776
*10866 FILLER_62_1784
*10867 FILLER_62_1792
*10868 FILLER_62_1800
*10869 FILLER_62_1808
*10870 FILLER_62_1816
*10871 FILLER_62_1818
*10872 FILLER_62_1820
*10873 FILLER_62_1828
*10874 FILLER_62_1836
*10875 FILLER_62_1844
*10876 FILLER_62_1852
*10877 FILLER_62_1860
*10878 FILLER_62_1868
*10879 FILLER_62_1876
*10880 FILLER_62_1878
*10881 FILLER_62_1880
*10882 FILLER_62_1888
*10883 FILLER_62_1896
*10884 FILLER_62_1904
*10885 FILLER_62_1912
*10886 FILLER_62_1920
*10887 FILLER_62_1928
*10888 FILLER_62_1936
*10889 FILLER_62_1938
*10890 FILLER_62_1940
*10891 FILLER_62_1948
*10892 FILLER_62_1956
*10893 FILLER_62_1964
*10894 FILLER_62_1972
*10895 FILLER_62_1980
*10896 FILLER_62_1988
*10897 FILLER_62_1996
*10898 FILLER_62_1998
*10899 FILLER_62_2000
*10900 FILLER_62_2008
*10901 FILLER_62_2016
*10902 FILLER_62_2024
*10903 FILLER_62_2032
*10904 FILLER_62_2040
*10905 FILLER_62_2048
*10906 FILLER_62_2056
*10907 FILLER_62_2058
*10908 FILLER_62_2060
*10909 FILLER_62_2068
*10910 FILLER_62_2076
*10911 FILLER_62_2084
*10912 FILLER_62_2092
*10913 FILLER_62_2100
*10914 FILLER_62_2108
*10915 FILLER_62_2116
*10916 FILLER_62_2118
*10917 FILLER_62_2120
*10918 FILLER_62_2128
*10828 FILLER_62_24
*10829 FILLER_62_28
*10830 FILLER_62_31
*10826 FILLER_62_8
*10919 FILLER_63_0
*10926 FILLER_63_1549
*10927 FILLER_63_1557
*10928 FILLER_63_1565
*10929 FILLER_63_1573
*10930 FILLER_63_1581
*10931 FILLER_63_1589
*10932 FILLER_63_1597
*10921 FILLER_63_16
*10933 FILLER_63_1605
*10934 FILLER_63_1610
*10935 FILLER_63_1618
*10936 FILLER_63_1626
*10937 FILLER_63_1634
*10938 FILLER_63_1642
*10939 FILLER_63_1650
*10940 FILLER_63_1658
*10941 FILLER_63_1666
*10942 FILLER_63_1668
*10943 FILLER_63_1670
*10944 FILLER_63_1678
*10945 FILLER_63_1686
*10946 FILLER_63_1694
*10947 FILLER_63_1702
*10948 FILLER_63_1710
*10949 FILLER_63_1718
*10950 FILLER_63_1726
*10951 FILLER_63_1728
*10952 FILLER_63_1730
*10953 FILLER_63_1738
*10954 FILLER_63_1746
*10955 FILLER_63_1754
*10956 FILLER_63_1762
*10957 FILLER_63_1770
*10958 FILLER_63_1778
*10959 FILLER_63_1786
*10960 FILLER_63_1788
*10961 FILLER_63_1790
*10962 FILLER_63_1798
*10963 FILLER_63_1806
*10964 FILLER_63_1814
*10965 FILLER_63_1822
*10966 FILLER_63_1830
*10967 FILLER_63_1838
*10968 FILLER_63_1846
*10969 FILLER_63_1848
*10970 FILLER_63_1850
*10971 FILLER_63_1858
*10972 FILLER_63_1866
*10973 FILLER_63_1874
*10974 FILLER_63_1882
*10975 FILLER_63_1890
*10976 FILLER_63_1898
*10977 FILLER_63_1906
*10978 FILLER_63_1908
*10979 FILLER_63_1910
*10980 FILLER_63_1918
*10981 FILLER_63_1926
*10982 FILLER_63_1934
*10983 FILLER_63_1942
*10984 FILLER_63_1950
*10985 FILLER_63_1958
*10986 FILLER_63_1966
*10987 FILLER_63_1968
*10988 FILLER_63_1970
*10989 FILLER_63_1978
*10990 FILLER_63_1986
*10991 FILLER_63_1994
*10992 FILLER_63_2002
*10993 FILLER_63_2010
*10994 FILLER_63_2018
*10995 FILLER_63_2026
*10996 FILLER_63_2028
*10997 FILLER_63_2030
*10998 FILLER_63_2038
*10999 FILLER_63_2046
*11000 FILLER_63_2054
*11001 FILLER_63_2062
*11002 FILLER_63_2070
*11003 FILLER_63_2078
*11004 FILLER_63_2086
*11005 FILLER_63_2088
*11006 FILLER_63_2090
*11007 FILLER_63_2098
*11008 FILLER_63_2106
*11009 FILLER_63_2114
*11010 FILLER_63_2122
*10922 FILLER_63_24
*10923 FILLER_63_32
*10924 FILLER_63_36
*10925 FILLER_63_38
*10920 FILLER_63_8
*11011 FILLER_64_0
*11017 FILLER_64_1549
*11018 FILLER_64_1557
*11019 FILLER_64_1565
*11020 FILLER_64_1573
*11021 FILLER_64_1577
*11022 FILLER_64_1580
*11023 FILLER_64_1588
*11024 FILLER_64_1596
*11013 FILLER_64_16
*11025 FILLER_64_1604
*11026 FILLER_64_1612
*11027 FILLER_64_1620
*11028 FILLER_64_1628
*11029 FILLER_64_1636
*11030 FILLER_64_1638
*11031 FILLER_64_1640
*11032 FILLER_64_1648
*11033 FILLER_64_1656
*11034 FILLER_64_1664
*11035 FILLER_64_1672
*11036 FILLER_64_1680
*11037 FILLER_64_1688
*11038 FILLER_64_1696
*11039 FILLER_64_1698
*11040 FILLER_64_1700
*11041 FILLER_64_1708
*11042 FILLER_64_1716
*11043 FILLER_64_1724
*11044 FILLER_64_1732
*11045 FILLER_64_1740
*11046 FILLER_64_1748
*11047 FILLER_64_1756
*11048 FILLER_64_1758
*11049 FILLER_64_1760
*11050 FILLER_64_1768
*11051 FILLER_64_1776
*11052 FILLER_64_1784
*11053 FILLER_64_1792
*11054 FILLER_64_1800
*11055 FILLER_64_1808
*11056 FILLER_64_1816
*11057 FILLER_64_1818
*11058 FILLER_64_1820
*11059 FILLER_64_1828
*11060 FILLER_64_1836
*11061 FILLER_64_1844
*11062 FILLER_64_1852
*11063 FILLER_64_1860
*11064 FILLER_64_1868
*11065 FILLER_64_1876
*11066 FILLER_64_1878
*11067 FILLER_64_1880
*11068 FILLER_64_1888
*11069 FILLER_64_1896
*11070 FILLER_64_1904
*11071 FILLER_64_1912
*11072 FILLER_64_1920
*11073 FILLER_64_1928
*11074 FILLER_64_1936
*11075 FILLER_64_1938
*11076 FILLER_64_1940
*11077 FILLER_64_1948
*11078 FILLER_64_1956
*11079 FILLER_64_1964
*11080 FILLER_64_1972
*11081 FILLER_64_1980
*11082 FILLER_64_1988
*11083 FILLER_64_1996
*11084 FILLER_64_1998
*11085 FILLER_64_2000
*11086 FILLER_64_2008
*11087 FILLER_64_2016
*11088 FILLER_64_2024
*11089 FILLER_64_2032
*11090 FILLER_64_2040
*11091 FILLER_64_2048
*11092 FILLER_64_2056
*11093 FILLER_64_2058
*11094 FILLER_64_2060
*11095 FILLER_64_2068
*11096 FILLER_64_2076
*11097 FILLER_64_2084
*11098 FILLER_64_2092
*11099 FILLER_64_2100
*11100 FILLER_64_2108
*11101 FILLER_64_2116
*11102 FILLER_64_2118
*11103 FILLER_64_2120
*11104 FILLER_64_2128
*11014 FILLER_64_24
*11015 FILLER_64_28
*11016 FILLER_64_31
*11012 FILLER_64_8
*11105 FILLER_65_0
*11112 FILLER_65_1549
*11113 FILLER_65_1557
*11114 FILLER_65_1565
*11115 FILLER_65_1573
*11116 FILLER_65_1581
*11117 FILLER_65_1589
*11118 FILLER_65_1597
*11107 FILLER_65_16
*11119 FILLER_65_1605
*11120 FILLER_65_1610
*11121 FILLER_65_1618
*11122 FILLER_65_1626
*11123 FILLER_65_1634
*11124 FILLER_65_1642
*11125 FILLER_65_1650
*11126 FILLER_65_1658
*11127 FILLER_65_1666
*11128 FILLER_65_1668
*11129 FILLER_65_1670
*11130 FILLER_65_1678
*11131 FILLER_65_1686
*11132 FILLER_65_1694
*11133 FILLER_65_1702
*11134 FILLER_65_1710
*11135 FILLER_65_1718
*11136 FILLER_65_1726
*11137 FILLER_65_1728
*11138 FILLER_65_1730
*11139 FILLER_65_1738
*11140 FILLER_65_1746
*11141 FILLER_65_1754
*11142 FILLER_65_1762
*11143 FILLER_65_1770
*11144 FILLER_65_1778
*11145 FILLER_65_1786
*11146 FILLER_65_1788
*11147 FILLER_65_1790
*11148 FILLER_65_1798
*11149 FILLER_65_1806
*11150 FILLER_65_1814
*11151 FILLER_65_1822
*11152 FILLER_65_1830
*11153 FILLER_65_1838
*11154 FILLER_65_1846
*11155 FILLER_65_1848
*11156 FILLER_65_1850
*11157 FILLER_65_1858
*11158 FILLER_65_1866
*11159 FILLER_65_1874
*11160 FILLER_65_1882
*11161 FILLER_65_1890
*11162 FILLER_65_1898
*11163 FILLER_65_1906
*11164 FILLER_65_1908
*11165 FILLER_65_1910
*11166 FILLER_65_1918
*11167 FILLER_65_1926
*11168 FILLER_65_1934
*11169 FILLER_65_1942
*11170 FILLER_65_1950
*11171 FILLER_65_1958
*11172 FILLER_65_1966
*11173 FILLER_65_1968
*11174 FILLER_65_1970
*11175 FILLER_65_1978
*11176 FILLER_65_1986
*11177 FILLER_65_1994
*11178 FILLER_65_2002
*11179 FILLER_65_2010
*11180 FILLER_65_2018
*11181 FILLER_65_2026
*11182 FILLER_65_2028
*11183 FILLER_65_2030
*11184 FILLER_65_2038
*11185 FILLER_65_2046
*11186 FILLER_65_2054
*11187 FILLER_65_2062
*11188 FILLER_65_2070
*11189 FILLER_65_2078
*11190 FILLER_65_2086
*11191 FILLER_65_2088
*11192 FILLER_65_2090
*11193 FILLER_65_2098
*11194 FILLER_65_2106
*11195 FILLER_65_2114
*11196 FILLER_65_2122
*11108 FILLER_65_24
*11109 FILLER_65_32
*11110 FILLER_65_36
*11111 FILLER_65_38
*11106 FILLER_65_8
*11197 FILLER_66_0
*11203 FILLER_66_1549
*11204 FILLER_66_1557
*11205 FILLER_66_1565
*11206 FILLER_66_1573
*11207 FILLER_66_1577
*11208 FILLER_66_1580
*11209 FILLER_66_1588
*11210 FILLER_66_1596
*11199 FILLER_66_16
*11211 FILLER_66_1604
*11212 FILLER_66_1612
*11213 FILLER_66_1620
*11214 FILLER_66_1628
*11215 FILLER_66_1636
*11216 FILLER_66_1638
*11217 FILLER_66_1640
*11218 FILLER_66_1648
*11219 FILLER_66_1656
*11220 FILLER_66_1664
*11221 FILLER_66_1672
*11222 FILLER_66_1680
*11223 FILLER_66_1688
*11224 FILLER_66_1696
*11225 FILLER_66_1698
*11226 FILLER_66_1700
*11227 FILLER_66_1708
*11228 FILLER_66_1716
*11229 FILLER_66_1724
*11230 FILLER_66_1732
*11231 FILLER_66_1740
*11232 FILLER_66_1748
*11233 FILLER_66_1756
*11234 FILLER_66_1758
*11235 FILLER_66_1760
*11236 FILLER_66_1768
*11237 FILLER_66_1776
*11238 FILLER_66_1784
*11239 FILLER_66_1792
*11240 FILLER_66_1800
*11241 FILLER_66_1808
*11242 FILLER_66_1816
*11243 FILLER_66_1818
*11244 FILLER_66_1820
*11245 FILLER_66_1828
*11246 FILLER_66_1836
*11247 FILLER_66_1844
*11248 FILLER_66_1852
*11249 FILLER_66_1860
*11250 FILLER_66_1868
*11251 FILLER_66_1876
*11252 FILLER_66_1878
*11253 FILLER_66_1880
*11254 FILLER_66_1888
*11255 FILLER_66_1896
*11256 FILLER_66_1904
*11257 FILLER_66_1912
*11258 FILLER_66_1920
*11259 FILLER_66_1928
*11260 FILLER_66_1936
*11261 FILLER_66_1938
*11262 FILLER_66_1940
*11263 FILLER_66_1948
*11264 FILLER_66_1956
*11265 FILLER_66_1964
*11266 FILLER_66_1972
*11267 FILLER_66_1980
*11268 FILLER_66_1988
*11269 FILLER_66_1996
*11270 FILLER_66_1998
*11271 FILLER_66_2000
*11272 FILLER_66_2008
*11273 FILLER_66_2016
*11274 FILLER_66_2024
*11275 FILLER_66_2032
*11276 FILLER_66_2040
*11277 FILLER_66_2048
*11278 FILLER_66_2056
*11279 FILLER_66_2058
*11280 FILLER_66_2060
*11281 FILLER_66_2068
*11282 FILLER_66_2076
*11283 FILLER_66_2084
*11284 FILLER_66_2092
*11285 FILLER_66_2100
*11286 FILLER_66_2108
*11287 FILLER_66_2116
*11288 FILLER_66_2118
*11289 FILLER_66_2120
*11290 FILLER_66_2128
*11200 FILLER_66_24
*11201 FILLER_66_28
*11202 FILLER_66_31
*11198 FILLER_66_8
*11291 FILLER_67_0
*11298 FILLER_67_1549
*11299 FILLER_67_1557
*11300 FILLER_67_1565
*11301 FILLER_67_1573
*11302 FILLER_67_1581
*11303 FILLER_67_1589
*11304 FILLER_67_1597
*11293 FILLER_67_16
*11305 FILLER_67_1605
*11306 FILLER_67_1610
*11307 FILLER_67_1618
*11308 FILLER_67_1626
*11309 FILLER_67_1634
*11310 FILLER_67_1642
*11311 FILLER_67_1650
*11312 FILLER_67_1658
*11313 FILLER_67_1666
*11314 FILLER_67_1668
*11315 FILLER_67_1670
*11316 FILLER_67_1678
*11317 FILLER_67_1686
*11318 FILLER_67_1694
*11319 FILLER_67_1702
*11320 FILLER_67_1710
*11321 FILLER_67_1718
*11322 FILLER_67_1726
*11323 FILLER_67_1728
*11324 FILLER_67_1730
*11325 FILLER_67_1738
*11326 FILLER_67_1746
*11327 FILLER_67_1754
*11328 FILLER_67_1762
*11329 FILLER_67_1770
*11330 FILLER_67_1778
*11331 FILLER_67_1786
*11332 FILLER_67_1788
*11333 FILLER_67_1790
*11334 FILLER_67_1798
*11335 FILLER_67_1806
*11336 FILLER_67_1814
*11337 FILLER_67_1822
*11338 FILLER_67_1830
*11339 FILLER_67_1838
*11340 FILLER_67_1846
*11341 FILLER_67_1848
*11342 FILLER_67_1850
*11343 FILLER_67_1858
*11344 FILLER_67_1866
*11345 FILLER_67_1874
*11346 FILLER_67_1882
*11347 FILLER_67_1890
*11348 FILLER_67_1898
*11349 FILLER_67_1906
*11350 FILLER_67_1908
*11351 FILLER_67_1910
*11352 FILLER_67_1918
*11353 FILLER_67_1926
*11354 FILLER_67_1934
*11355 FILLER_67_1942
*11356 FILLER_67_1950
*11357 FILLER_67_1958
*11358 FILLER_67_1966
*11359 FILLER_67_1968
*11360 FILLER_67_1970
*11361 FILLER_67_1978
*11362 FILLER_67_1986
*11363 FILLER_67_1994
*11364 FILLER_67_2002
*11365 FILLER_67_2010
*11366 FILLER_67_2018
*11367 FILLER_67_2026
*11368 FILLER_67_2028
*11369 FILLER_67_2030
*11370 FILLER_67_2038
*11371 FILLER_67_2046
*11372 FILLER_67_2054
*11373 FILLER_67_2062
*11374 FILLER_67_2070
*11375 FILLER_67_2078
*11376 FILLER_67_2086
*11377 FILLER_67_2088
*11378 FILLER_67_2090
*11379 FILLER_67_2098
*11380 FILLER_67_2106
*11381 FILLER_67_2114
*11382 FILLER_67_2122
*11294 FILLER_67_24
*11295 FILLER_67_32
*11296 FILLER_67_36
*11297 FILLER_67_38
*11292 FILLER_67_8
*11383 FILLER_68_0
*11389 FILLER_68_1549
*11390 FILLER_68_1557
*11391 FILLER_68_1565
*11392 FILLER_68_1573
*11393 FILLER_68_1577
*11394 FILLER_68_1580
*11395 FILLER_68_1588
*11396 FILLER_68_1596
*11385 FILLER_68_16
*11397 FILLER_68_1604
*11398 FILLER_68_1612
*11399 FILLER_68_1620
*11400 FILLER_68_1628
*11401 FILLER_68_1636
*11402 FILLER_68_1638
*11403 FILLER_68_1640
*11404 FILLER_68_1648
*11405 FILLER_68_1656
*11406 FILLER_68_1664
*11407 FILLER_68_1672
*11408 FILLER_68_1680
*11409 FILLER_68_1688
*11410 FILLER_68_1696
*11411 FILLER_68_1698
*11412 FILLER_68_1700
*11413 FILLER_68_1708
*11414 FILLER_68_1716
*11415 FILLER_68_1724
*11416 FILLER_68_1732
*11417 FILLER_68_1740
*11418 FILLER_68_1748
*11419 FILLER_68_1756
*11420 FILLER_68_1758
*11421 FILLER_68_1760
*11422 FILLER_68_1768
*11423 FILLER_68_1776
*11424 FILLER_68_1784
*11425 FILLER_68_1792
*11426 FILLER_68_1800
*11427 FILLER_68_1808
*11428 FILLER_68_1816
*11429 FILLER_68_1818
*11430 FILLER_68_1820
*11431 FILLER_68_1828
*11432 FILLER_68_1836
*11433 FILLER_68_1844
*11434 FILLER_68_1852
*11435 FILLER_68_1860
*11436 FILLER_68_1868
*11437 FILLER_68_1876
*11438 FILLER_68_1878
*11439 FILLER_68_1880
*11440 FILLER_68_1888
*11441 FILLER_68_1896
*11442 FILLER_68_1904
*11443 FILLER_68_1912
*11444 FILLER_68_1920
*11445 FILLER_68_1928
*11446 FILLER_68_1936
*11447 FILLER_68_1938
*11448 FILLER_68_1940
*11449 FILLER_68_1948
*11450 FILLER_68_1956
*11451 FILLER_68_1964
*11452 FILLER_68_1972
*11453 FILLER_68_1980
*11454 FILLER_68_1988
*11455 FILLER_68_1996
*11456 FILLER_68_1998
*11457 FILLER_68_2000
*11458 FILLER_68_2008
*11459 FILLER_68_2016
*11460 FILLER_68_2024
*11461 FILLER_68_2032
*11462 FILLER_68_2040
*11463 FILLER_68_2048
*11464 FILLER_68_2056
*11465 FILLER_68_2058
*11466 FILLER_68_2060
*11467 FILLER_68_2068
*11468 FILLER_68_2076
*11469 FILLER_68_2084
*11470 FILLER_68_2092
*11471 FILLER_68_2100
*11472 FILLER_68_2108
*11473 FILLER_68_2116
*11474 FILLER_68_2118
*11475 FILLER_68_2120
*11476 FILLER_68_2128
*11386 FILLER_68_24
*11387 FILLER_68_28
*11388 FILLER_68_31
*11384 FILLER_68_8
*11477 FILLER_69_0
*11484 FILLER_69_1549
*11485 FILLER_69_1557
*11486 FILLER_69_1565
*11487 FILLER_69_1573
*11488 FILLER_69_1581
*11489 FILLER_69_1589
*11490 FILLER_69_1597
*11479 FILLER_69_16
*11491 FILLER_69_1605
*11492 FILLER_69_1610
*11493 FILLER_69_1618
*11494 FILLER_69_1626
*11495 FILLER_69_1634
*11496 FILLER_69_1642
*11497 FILLER_69_1650
*11498 FILLER_69_1658
*11499 FILLER_69_1666
*11500 FILLER_69_1668
*11501 FILLER_69_1670
*11502 FILLER_69_1678
*11503 FILLER_69_1686
*11504 FILLER_69_1694
*11505 FILLER_69_1702
*11506 FILLER_69_1710
*11507 FILLER_69_1718
*11508 FILLER_69_1726
*11509 FILLER_69_1728
*11510 FILLER_69_1730
*11511 FILLER_69_1738
*11512 FILLER_69_1746
*11513 FILLER_69_1754
*11514 FILLER_69_1762
*11515 FILLER_69_1770
*11516 FILLER_69_1778
*11517 FILLER_69_1786
*11518 FILLER_69_1788
*11519 FILLER_69_1790
*11520 FILLER_69_1798
*11521 FILLER_69_1806
*11522 FILLER_69_1814
*11523 FILLER_69_1822
*11524 FILLER_69_1830
*11525 FILLER_69_1838
*11526 FILLER_69_1846
*11527 FILLER_69_1848
*11528 FILLER_69_1850
*11529 FILLER_69_1858
*11530 FILLER_69_1866
*11531 FILLER_69_1874
*11532 FILLER_69_1882
*11533 FILLER_69_1890
*11534 FILLER_69_1898
*11535 FILLER_69_1906
*11536 FILLER_69_1908
*11537 FILLER_69_1910
*11538 FILLER_69_1918
*11539 FILLER_69_1926
*11540 FILLER_69_1934
*11541 FILLER_69_1942
*11542 FILLER_69_1950
*11543 FILLER_69_1958
*11544 FILLER_69_1966
*11545 FILLER_69_1968
*11546 FILLER_69_1970
*11547 FILLER_69_1978
*11548 FILLER_69_1986
*11549 FILLER_69_1994
*11550 FILLER_69_2002
*11551 FILLER_69_2010
*11552 FILLER_69_2018
*11553 FILLER_69_2026
*11554 FILLER_69_2028
*11555 FILLER_69_2030
*11556 FILLER_69_2038
*11557 FILLER_69_2046
*11558 FILLER_69_2054
*11559 FILLER_69_2062
*11560 FILLER_69_2070
*11561 FILLER_69_2078
*11562 FILLER_69_2086
*11563 FILLER_69_2088
*11564 FILLER_69_2090
*11565 FILLER_69_2098
*11566 FILLER_69_2106
*11567 FILLER_69_2114
*11568 FILLER_69_2122
*11480 FILLER_69_24
*11481 FILLER_69_32
*11482 FILLER_69_36
*11483 FILLER_69_38
*11478 FILLER_69_8
*5617 FILLER_6_0
*5623 FILLER_6_1549
*5624 FILLER_6_1557
*5625 FILLER_6_1565
*5626 FILLER_6_1573
*5627 FILLER_6_1577
*5628 FILLER_6_1580
*5629 FILLER_6_1588
*5630 FILLER_6_1596
*5619 FILLER_6_16
*5631 FILLER_6_1604
*5632 FILLER_6_1612
*5633 FILLER_6_1620
*5634 FILLER_6_1628
*5635 FILLER_6_1636
*5636 FILLER_6_1638
*5637 FILLER_6_1640
*5638 FILLER_6_1648
*5639 FILLER_6_1656
*5640 FILLER_6_1664
*5641 FILLER_6_1672
*5642 FILLER_6_1680
*5643 FILLER_6_1688
*5644 FILLER_6_1696
*5645 FILLER_6_1698
*5646 FILLER_6_1700
*5647 FILLER_6_1708
*5648 FILLER_6_1716
*5649 FILLER_6_1724
*5650 FILLER_6_1732
*5651 FILLER_6_1740
*5652 FILLER_6_1748
*5653 FILLER_6_1756
*5654 FILLER_6_1758
*5655 FILLER_6_1760
*5656 FILLER_6_1768
*5657 FILLER_6_1776
*5658 FILLER_6_1784
*5659 FILLER_6_1792
*5660 FILLER_6_1800
*5661 FILLER_6_1808
*5662 FILLER_6_1816
*5663 FILLER_6_1818
*5664 FILLER_6_1820
*5665 FILLER_6_1828
*5666 FILLER_6_1836
*5667 FILLER_6_1844
*5668 FILLER_6_1852
*5669 FILLER_6_1860
*5670 FILLER_6_1868
*5671 FILLER_6_1876
*5672 FILLER_6_1878
*5673 FILLER_6_1880
*5674 FILLER_6_1888
*5675 FILLER_6_1896
*5676 FILLER_6_1904
*5677 FILLER_6_1912
*5678 FILLER_6_1920
*5679 FILLER_6_1928
*5680 FILLER_6_1936
*5681 FILLER_6_1938
*5682 FILLER_6_1940
*5683 FILLER_6_1948
*5684 FILLER_6_1956
*5685 FILLER_6_1964
*5686 FILLER_6_1972
*5687 FILLER_6_1980
*5688 FILLER_6_1988
*5689 FILLER_6_1996
*5690 FILLER_6_1998
*5691 FILLER_6_2000
*5692 FILLER_6_2008
*5693 FILLER_6_2016
*5694 FILLER_6_2024
*5695 FILLER_6_2032
*5696 FILLER_6_2040
*5697 FILLER_6_2048
*5698 FILLER_6_2056
*5699 FILLER_6_2058
*5700 FILLER_6_2060
*5701 FILLER_6_2068
*5702 FILLER_6_2076
*5703 FILLER_6_2084
*5704 FILLER_6_2092
*5705 FILLER_6_2100
*5706 FILLER_6_2108
*5707 FILLER_6_2116
*5708 FILLER_6_2118
*5709 FILLER_6_2120
*5710 FILLER_6_2128
*5620 FILLER_6_24
*5621 FILLER_6_28
*5622 FILLER_6_31
*5618 FILLER_6_8
*11569 FILLER_70_0
*11575 FILLER_70_1549
*11576 FILLER_70_1557
*11577 FILLER_70_1565
*11578 FILLER_70_1573
*11579 FILLER_70_1577
*11580 FILLER_70_1580
*11581 FILLER_70_1588
*11582 FILLER_70_1596
*11571 FILLER_70_16
*11583 FILLER_70_1604
*11584 FILLER_70_1612
*11585 FILLER_70_1620
*11586 FILLER_70_1628
*11587 FILLER_70_1636
*11588 FILLER_70_1638
*11589 FILLER_70_1640
*11590 FILLER_70_1648
*11591 FILLER_70_1656
*11592 FILLER_70_1664
*11593 FILLER_70_1672
*11594 FILLER_70_1680
*11595 FILLER_70_1688
*11596 FILLER_70_1696
*11597 FILLER_70_1698
*11598 FILLER_70_1700
*11599 FILLER_70_1708
*11600 FILLER_70_1716
*11601 FILLER_70_1724
*11602 FILLER_70_1732
*11603 FILLER_70_1740
*11604 FILLER_70_1748
*11605 FILLER_70_1756
*11606 FILLER_70_1758
*11607 FILLER_70_1760
*11608 FILLER_70_1768
*11609 FILLER_70_1776
*11610 FILLER_70_1784
*11611 FILLER_70_1792
*11612 FILLER_70_1800
*11613 FILLER_70_1808
*11614 FILLER_70_1816
*11615 FILLER_70_1818
*11616 FILLER_70_1820
*11617 FILLER_70_1828
*11618 FILLER_70_1836
*11619 FILLER_70_1844
*11620 FILLER_70_1852
*11621 FILLER_70_1860
*11622 FILLER_70_1868
*11623 FILLER_70_1876
*11624 FILLER_70_1878
*11625 FILLER_70_1880
*11626 FILLER_70_1888
*11627 FILLER_70_1896
*11628 FILLER_70_1904
*11629 FILLER_70_1912
*11630 FILLER_70_1920
*11631 FILLER_70_1928
*11632 FILLER_70_1936
*11633 FILLER_70_1938
*11634 FILLER_70_1940
*11635 FILLER_70_1948
*11636 FILLER_70_1956
*11637 FILLER_70_1964
*11638 FILLER_70_1972
*11639 FILLER_70_1980
*11640 FILLER_70_1988
*11641 FILLER_70_1996
*11642 FILLER_70_1998
*11643 FILLER_70_2000
*11644 FILLER_70_2008
*11645 FILLER_70_2016
*11646 FILLER_70_2024
*11647 FILLER_70_2032
*11648 FILLER_70_2040
*11649 FILLER_70_2048
*11650 FILLER_70_2056
*11651 FILLER_70_2058
*11652 FILLER_70_2060
*11653 FILLER_70_2068
*11654 FILLER_70_2076
*11655 FILLER_70_2084
*11656 FILLER_70_2092
*11657 FILLER_70_2100
*11658 FILLER_70_2108
*11659 FILLER_70_2116
*11660 FILLER_70_2118
*11661 FILLER_70_2120
*11662 FILLER_70_2128
*11572 FILLER_70_24
*11573 FILLER_70_28
*11574 FILLER_70_31
*11570 FILLER_70_8
*11663 FILLER_71_0
*11670 FILLER_71_1549
*11671 FILLER_71_1557
*11672 FILLER_71_1565
*11673 FILLER_71_1573
*11674 FILLER_71_1581
*11675 FILLER_71_1589
*11676 FILLER_71_1597
*11665 FILLER_71_16
*11677 FILLER_71_1605
*11678 FILLER_71_1610
*11679 FILLER_71_1618
*11680 FILLER_71_1626
*11681 FILLER_71_1634
*11682 FILLER_71_1642
*11683 FILLER_71_1650
*11684 FILLER_71_1658
*11685 FILLER_71_1666
*11686 FILLER_71_1668
*11687 FILLER_71_1670
*11688 FILLER_71_1678
*11689 FILLER_71_1686
*11690 FILLER_71_1694
*11691 FILLER_71_1702
*11692 FILLER_71_1710
*11693 FILLER_71_1718
*11694 FILLER_71_1726
*11695 FILLER_71_1728
*11696 FILLER_71_1730
*11697 FILLER_71_1738
*11698 FILLER_71_1746
*11699 FILLER_71_1754
*11700 FILLER_71_1762
*11701 FILLER_71_1770
*11702 FILLER_71_1778
*11703 FILLER_71_1786
*11704 FILLER_71_1788
*11705 FILLER_71_1790
*11706 FILLER_71_1798
*11707 FILLER_71_1806
*11708 FILLER_71_1814
*11709 FILLER_71_1822
*11710 FILLER_71_1830
*11711 FILLER_71_1838
*11712 FILLER_71_1846
*11713 FILLER_71_1848
*11714 FILLER_71_1850
*11715 FILLER_71_1858
*11716 FILLER_71_1866
*11717 FILLER_71_1874
*11718 FILLER_71_1882
*11719 FILLER_71_1890
*11720 FILLER_71_1898
*11721 FILLER_71_1906
*11722 FILLER_71_1908
*11723 FILLER_71_1910
*11724 FILLER_71_1918
*11725 FILLER_71_1926
*11726 FILLER_71_1934
*11727 FILLER_71_1942
*11728 FILLER_71_1950
*11729 FILLER_71_1958
*11730 FILLER_71_1966
*11731 FILLER_71_1968
*11732 FILLER_71_1970
*11733 FILLER_71_1978
*11734 FILLER_71_1986
*11735 FILLER_71_1994
*11736 FILLER_71_2002
*11737 FILLER_71_2010
*11738 FILLER_71_2018
*11739 FILLER_71_2026
*11740 FILLER_71_2028
*11741 FILLER_71_2030
*11742 FILLER_71_2038
*11743 FILLER_71_2046
*11744 FILLER_71_2054
*11745 FILLER_71_2062
*11746 FILLER_71_2070
*11747 FILLER_71_2078
*11748 FILLER_71_2086
*11749 FILLER_71_2088
*11750 FILLER_71_2090
*11751 FILLER_71_2098
*11752 FILLER_71_2106
*11753 FILLER_71_2114
*11754 FILLER_71_2122
*11666 FILLER_71_24
*11667 FILLER_71_32
*11668 FILLER_71_36
*11669 FILLER_71_38
*11664 FILLER_71_8
*11755 FILLER_72_0
*11761 FILLER_72_1549
*11762 FILLER_72_1557
*11763 FILLER_72_1565
*11764 FILLER_72_1573
*11765 FILLER_72_1577
*11766 FILLER_72_1580
*11767 FILLER_72_1588
*11768 FILLER_72_1596
*11757 FILLER_72_16
*11769 FILLER_72_1604
*11770 FILLER_72_1612
*11771 FILLER_72_1620
*11772 FILLER_72_1628
*11773 FILLER_72_1636
*11774 FILLER_72_1638
*11775 FILLER_72_1640
*11776 FILLER_72_1648
*11777 FILLER_72_1656
*11778 FILLER_72_1664
*11779 FILLER_72_1672
*11780 FILLER_72_1680
*11781 FILLER_72_1688
*11782 FILLER_72_1696
*11783 FILLER_72_1698
*11784 FILLER_72_1700
*11785 FILLER_72_1708
*11786 FILLER_72_1716
*11787 FILLER_72_1724
*11788 FILLER_72_1732
*11789 FILLER_72_1740
*11790 FILLER_72_1748
*11791 FILLER_72_1756
*11792 FILLER_72_1758
*11793 FILLER_72_1760
*11794 FILLER_72_1768
*11795 FILLER_72_1776
*11796 FILLER_72_1784
*11797 FILLER_72_1792
*11798 FILLER_72_1800
*11799 FILLER_72_1808
*11800 FILLER_72_1816
*11801 FILLER_72_1818
*11802 FILLER_72_1820
*11803 FILLER_72_1828
*11804 FILLER_72_1836
*11805 FILLER_72_1844
*11806 FILLER_72_1852
*11807 FILLER_72_1860
*11808 FILLER_72_1868
*11809 FILLER_72_1876
*11810 FILLER_72_1878
*11811 FILLER_72_1880
*11812 FILLER_72_1888
*11813 FILLER_72_1896
*11814 FILLER_72_1904
*11815 FILLER_72_1912
*11816 FILLER_72_1920
*11817 FILLER_72_1928
*11818 FILLER_72_1936
*11819 FILLER_72_1938
*11820 FILLER_72_1940
*11821 FILLER_72_1948
*11822 FILLER_72_1956
*11823 FILLER_72_1964
*11824 FILLER_72_1972
*11825 FILLER_72_1980
*11826 FILLER_72_1988
*11827 FILLER_72_1996
*11828 FILLER_72_1998
*11829 FILLER_72_2000
*11830 FILLER_72_2008
*11831 FILLER_72_2016
*11832 FILLER_72_2024
*11833 FILLER_72_2032
*11834 FILLER_72_2040
*11835 FILLER_72_2048
*11836 FILLER_72_2056
*11837 FILLER_72_2058
*11838 FILLER_72_2060
*11839 FILLER_72_2068
*11840 FILLER_72_2076
*11841 FILLER_72_2084
*11842 FILLER_72_2092
*11843 FILLER_72_2100
*11844 FILLER_72_2108
*11845 FILLER_72_2116
*11846 FILLER_72_2118
*11847 FILLER_72_2120
*11848 FILLER_72_2128
*11758 FILLER_72_24
*11759 FILLER_72_28
*11760 FILLER_72_31
*11756 FILLER_72_8
*11849 FILLER_73_0
*11856 FILLER_73_1549
*11857 FILLER_73_1557
*11858 FILLER_73_1565
*11859 FILLER_73_1573
*11860 FILLER_73_1581
*11861 FILLER_73_1589
*11862 FILLER_73_1597
*11851 FILLER_73_16
*11863 FILLER_73_1605
*11864 FILLER_73_1610
*11865 FILLER_73_1618
*11866 FILLER_73_1626
*11867 FILLER_73_1634
*11868 FILLER_73_1642
*11869 FILLER_73_1650
*11870 FILLER_73_1658
*11871 FILLER_73_1666
*11872 FILLER_73_1668
*11873 FILLER_73_1670
*11874 FILLER_73_1678
*11875 FILLER_73_1686
*11876 FILLER_73_1694
*11877 FILLER_73_1702
*11878 FILLER_73_1710
*11879 FILLER_73_1718
*11880 FILLER_73_1726
*11881 FILLER_73_1728
*11882 FILLER_73_1730
*11883 FILLER_73_1738
*11884 FILLER_73_1746
*11885 FILLER_73_1754
*11886 FILLER_73_1762
*11887 FILLER_73_1770
*11888 FILLER_73_1778
*11889 FILLER_73_1786
*11890 FILLER_73_1788
*11891 FILLER_73_1790
*11892 FILLER_73_1798
*11893 FILLER_73_1806
*11894 FILLER_73_1814
*11895 FILLER_73_1822
*11896 FILLER_73_1830
*11897 FILLER_73_1838
*11898 FILLER_73_1846
*11899 FILLER_73_1848
*11900 FILLER_73_1850
*11901 FILLER_73_1858
*11902 FILLER_73_1866
*11903 FILLER_73_1874
*11904 FILLER_73_1882
*11905 FILLER_73_1890
*11906 FILLER_73_1898
*11907 FILLER_73_1906
*11908 FILLER_73_1908
*11909 FILLER_73_1910
*11910 FILLER_73_1918
*11911 FILLER_73_1926
*11912 FILLER_73_1934
*11913 FILLER_73_1942
*11914 FILLER_73_1950
*11915 FILLER_73_1958
*11916 FILLER_73_1966
*11917 FILLER_73_1968
*11918 FILLER_73_1970
*11919 FILLER_73_1978
*11920 FILLER_73_1986
*11921 FILLER_73_1994
*11922 FILLER_73_2002
*11923 FILLER_73_2010
*11924 FILLER_73_2018
*11925 FILLER_73_2026
*11926 FILLER_73_2028
*11927 FILLER_73_2030
*11928 FILLER_73_2038
*11929 FILLER_73_2046
*11930 FILLER_73_2054
*11931 FILLER_73_2062
*11932 FILLER_73_2070
*11933 FILLER_73_2078
*11934 FILLER_73_2086
*11935 FILLER_73_2088
*11936 FILLER_73_2090
*11937 FILLER_73_2098
*11938 FILLER_73_2106
*11939 FILLER_73_2114
*11940 FILLER_73_2122
*11852 FILLER_73_24
*11853 FILLER_73_32
*11854 FILLER_73_36
*11855 FILLER_73_38
*11850 FILLER_73_8
*11941 FILLER_74_0
*11947 FILLER_74_1549
*11948 FILLER_74_1557
*11949 FILLER_74_1565
*11950 FILLER_74_1573
*11951 FILLER_74_1577
*11952 FILLER_74_1580
*11953 FILLER_74_1588
*11954 FILLER_74_1596
*11943 FILLER_74_16
*11955 FILLER_74_1604
*11956 FILLER_74_1612
*11957 FILLER_74_1620
*11958 FILLER_74_1628
*11959 FILLER_74_1636
*11960 FILLER_74_1638
*11961 FILLER_74_1640
*11962 FILLER_74_1648
*11963 FILLER_74_1656
*11964 FILLER_74_1664
*11965 FILLER_74_1672
*11966 FILLER_74_1680
*11967 FILLER_74_1688
*11968 FILLER_74_1696
*11969 FILLER_74_1698
*11970 FILLER_74_1700
*11971 FILLER_74_1708
*11972 FILLER_74_1716
*11973 FILLER_74_1724
*11974 FILLER_74_1732
*11975 FILLER_74_1740
*11976 FILLER_74_1748
*11977 FILLER_74_1756
*11978 FILLER_74_1758
*11979 FILLER_74_1760
*11980 FILLER_74_1768
*11981 FILLER_74_1776
*11982 FILLER_74_1784
*11983 FILLER_74_1792
*11984 FILLER_74_1800
*11985 FILLER_74_1808
*11986 FILLER_74_1816
*11987 FILLER_74_1818
*11988 FILLER_74_1820
*11989 FILLER_74_1828
*11990 FILLER_74_1836
*11991 FILLER_74_1844
*11992 FILLER_74_1852
*11993 FILLER_74_1860
*11994 FILLER_74_1868
*11995 FILLER_74_1876
*11996 FILLER_74_1878
*11997 FILLER_74_1880
*11998 FILLER_74_1888
*11999 FILLER_74_1896
*12000 FILLER_74_1904
*12001 FILLER_74_1912
*12002 FILLER_74_1920
*12003 FILLER_74_1928
*12004 FILLER_74_1936
*12005 FILLER_74_1938
*12006 FILLER_74_1940
*12007 FILLER_74_1948
*12008 FILLER_74_1956
*12009 FILLER_74_1964
*12010 FILLER_74_1972
*12011 FILLER_74_1980
*12012 FILLER_74_1988
*12013 FILLER_74_1996
*12014 FILLER_74_1998
*12015 FILLER_74_2000
*12016 FILLER_74_2008
*12017 FILLER_74_2016
*12018 FILLER_74_2024
*12019 FILLER_74_2032
*12020 FILLER_74_2040
*12021 FILLER_74_2048
*12022 FILLER_74_2056
*12023 FILLER_74_2058
*12024 FILLER_74_2060
*12025 FILLER_74_2068
*12026 FILLER_74_2076
*12027 FILLER_74_2084
*12028 FILLER_74_2092
*12029 FILLER_74_2100
*12030 FILLER_74_2108
*12031 FILLER_74_2116
*12032 FILLER_74_2118
*12033 FILLER_74_2120
*12034 FILLER_74_2128
*11944 FILLER_74_24
*11945 FILLER_74_28
*11946 FILLER_74_31
*11942 FILLER_74_8
*12035 FILLER_75_0
*12042 FILLER_75_1549
*12043 FILLER_75_1557
*12044 FILLER_75_1565
*12045 FILLER_75_1573
*12046 FILLER_75_1581
*12047 FILLER_75_1589
*12048 FILLER_75_1597
*12037 FILLER_75_16
*12049 FILLER_75_1605
*12050 FILLER_75_1610
*12051 FILLER_75_1618
*12052 FILLER_75_1626
*12053 FILLER_75_1634
*12054 FILLER_75_1642
*12055 FILLER_75_1650
*12056 FILLER_75_1658
*12057 FILLER_75_1666
*12058 FILLER_75_1668
*12059 FILLER_75_1670
*12060 FILLER_75_1678
*12061 FILLER_75_1686
*12062 FILLER_75_1694
*12063 FILLER_75_1702
*12064 FILLER_75_1710
*12065 FILLER_75_1718
*12066 FILLER_75_1726
*12067 FILLER_75_1728
*12068 FILLER_75_1730
*12069 FILLER_75_1738
*12070 FILLER_75_1746
*12071 FILLER_75_1754
*12072 FILLER_75_1762
*12073 FILLER_75_1770
*12074 FILLER_75_1778
*12075 FILLER_75_1786
*12076 FILLER_75_1788
*12077 FILLER_75_1790
*12078 FILLER_75_1798
*12079 FILLER_75_1806
*12080 FILLER_75_1814
*12081 FILLER_75_1822
*12082 FILLER_75_1830
*12083 FILLER_75_1838
*12084 FILLER_75_1846
*12085 FILLER_75_1848
*12086 FILLER_75_1850
*12087 FILLER_75_1858
*12088 FILLER_75_1866
*12089 FILLER_75_1874
*12090 FILLER_75_1882
*12091 FILLER_75_1890
*12092 FILLER_75_1898
*12093 FILLER_75_1906
*12094 FILLER_75_1908
*12095 FILLER_75_1910
*12096 FILLER_75_1918
*12097 FILLER_75_1926
*12098 FILLER_75_1934
*12099 FILLER_75_1942
*12100 FILLER_75_1950
*12101 FILLER_75_1958
*12102 FILLER_75_1966
*12103 FILLER_75_1968
*12104 FILLER_75_1970
*12105 FILLER_75_1978
*12106 FILLER_75_1986
*12107 FILLER_75_1994
*12108 FILLER_75_2002
*12109 FILLER_75_2010
*12110 FILLER_75_2018
*12111 FILLER_75_2026
*12112 FILLER_75_2028
*12113 FILLER_75_2030
*12114 FILLER_75_2038
*12115 FILLER_75_2046
*12116 FILLER_75_2054
*12117 FILLER_75_2062
*12118 FILLER_75_2070
*12119 FILLER_75_2078
*12120 FILLER_75_2086
*12121 FILLER_75_2088
*12122 FILLER_75_2090
*12123 FILLER_75_2098
*12124 FILLER_75_2106
*12125 FILLER_75_2114
*12126 FILLER_75_2122
*12038 FILLER_75_24
*12039 FILLER_75_32
*12040 FILLER_75_36
*12041 FILLER_75_38
*12036 FILLER_75_8
*12127 FILLER_76_0
*12133 FILLER_76_1549
*12134 FILLER_76_1557
*12135 FILLER_76_1565
*12136 FILLER_76_1573
*12137 FILLER_76_1577
*12138 FILLER_76_1580
*12139 FILLER_76_1588
*12140 FILLER_76_1596
*12129 FILLER_76_16
*12141 FILLER_76_1604
*12142 FILLER_76_1612
*12143 FILLER_76_1620
*12144 FILLER_76_1628
*12145 FILLER_76_1636
*12146 FILLER_76_1638
*12147 FILLER_76_1640
*12148 FILLER_76_1648
*12149 FILLER_76_1656
*12150 FILLER_76_1664
*12151 FILLER_76_1672
*12152 FILLER_76_1680
*12153 FILLER_76_1688
*12154 FILLER_76_1696
*12155 FILLER_76_1698
*12156 FILLER_76_1700
*12157 FILLER_76_1708
*12158 FILLER_76_1716
*12159 FILLER_76_1724
*12160 FILLER_76_1732
*12161 FILLER_76_1740
*12162 FILLER_76_1748
*12163 FILLER_76_1756
*12164 FILLER_76_1758
*12165 FILLER_76_1760
*12166 FILLER_76_1768
*12167 FILLER_76_1776
*12168 FILLER_76_1784
*12169 FILLER_76_1792
*12170 FILLER_76_1800
*12171 FILLER_76_1808
*12172 FILLER_76_1816
*12173 FILLER_76_1818
*12174 FILLER_76_1820
*12175 FILLER_76_1828
*12176 FILLER_76_1836
*12177 FILLER_76_1844
*12178 FILLER_76_1852
*12179 FILLER_76_1860
*12180 FILLER_76_1868
*12181 FILLER_76_1876
*12182 FILLER_76_1878
*12183 FILLER_76_1880
*12184 FILLER_76_1888
*12185 FILLER_76_1896
*12186 FILLER_76_1904
*12187 FILLER_76_1912
*12188 FILLER_76_1920
*12189 FILLER_76_1928
*12190 FILLER_76_1936
*12191 FILLER_76_1938
*12192 FILLER_76_1940
*12193 FILLER_76_1948
*12194 FILLER_76_1956
*12195 FILLER_76_1964
*12196 FILLER_76_1972
*12197 FILLER_76_1980
*12198 FILLER_76_1988
*12199 FILLER_76_1996
*12200 FILLER_76_1998
*12201 FILLER_76_2000
*12202 FILLER_76_2008
*12203 FILLER_76_2016
*12204 FILLER_76_2024
*12205 FILLER_76_2032
*12206 FILLER_76_2040
*12207 FILLER_76_2048
*12208 FILLER_76_2056
*12209 FILLER_76_2058
*12210 FILLER_76_2060
*12211 FILLER_76_2068
*12212 FILLER_76_2076
*12213 FILLER_76_2084
*12214 FILLER_76_2092
*12215 FILLER_76_2100
*12216 FILLER_76_2108
*12217 FILLER_76_2116
*12218 FILLER_76_2118
*12219 FILLER_76_2120
*12220 FILLER_76_2128
*12130 FILLER_76_24
*12131 FILLER_76_28
*12132 FILLER_76_31
*12128 FILLER_76_8
*12221 FILLER_77_0
*12228 FILLER_77_1549
*12229 FILLER_77_1557
*12230 FILLER_77_1565
*12231 FILLER_77_1573
*12232 FILLER_77_1581
*12233 FILLER_77_1589
*12234 FILLER_77_1597
*12223 FILLER_77_16
*12235 FILLER_77_1605
*12236 FILLER_77_1610
*12237 FILLER_77_1618
*12238 FILLER_77_1626
*12239 FILLER_77_1634
*12240 FILLER_77_1642
*12241 FILLER_77_1650
*12242 FILLER_77_1658
*12243 FILLER_77_1666
*12244 FILLER_77_1668
*12245 FILLER_77_1670
*12246 FILLER_77_1678
*12247 FILLER_77_1686
*12248 FILLER_77_1694
*12249 FILLER_77_1702
*12250 FILLER_77_1710
*12251 FILLER_77_1718
*12252 FILLER_77_1726
*12253 FILLER_77_1728
*12254 FILLER_77_1730
*12255 FILLER_77_1738
*12256 FILLER_77_1746
*12257 FILLER_77_1754
*12258 FILLER_77_1762
*12259 FILLER_77_1770
*12260 FILLER_77_1778
*12261 FILLER_77_1786
*12262 FILLER_77_1788
*12263 FILLER_77_1790
*12264 FILLER_77_1798
*12265 FILLER_77_1806
*12266 FILLER_77_1814
*12267 FILLER_77_1822
*12268 FILLER_77_1830
*12269 FILLER_77_1838
*12270 FILLER_77_1846
*12271 FILLER_77_1848
*12272 FILLER_77_1850
*12273 FILLER_77_1858
*12274 FILLER_77_1866
*12275 FILLER_77_1874
*12276 FILLER_77_1882
*12277 FILLER_77_1890
*12278 FILLER_77_1898
*12279 FILLER_77_1906
*12280 FILLER_77_1908
*12281 FILLER_77_1910
*12282 FILLER_77_1918
*12283 FILLER_77_1926
*12284 FILLER_77_1934
*12285 FILLER_77_1942
*12286 FILLER_77_1950
*12287 FILLER_77_1958
*12288 FILLER_77_1966
*12289 FILLER_77_1968
*12290 FILLER_77_1970
*12291 FILLER_77_1978
*12292 FILLER_77_1986
*12293 FILLER_77_1994
*12294 FILLER_77_2002
*12295 FILLER_77_2010
*12296 FILLER_77_2018
*12297 FILLER_77_2026
*12298 FILLER_77_2028
*12299 FILLER_77_2030
*12300 FILLER_77_2038
*12301 FILLER_77_2046
*12302 FILLER_77_2054
*12303 FILLER_77_2062
*12304 FILLER_77_2070
*12305 FILLER_77_2078
*12306 FILLER_77_2086
*12307 FILLER_77_2088
*12308 FILLER_77_2090
*12309 FILLER_77_2098
*12310 FILLER_77_2106
*12311 FILLER_77_2114
*12312 FILLER_77_2122
*12224 FILLER_77_24
*12225 FILLER_77_32
*12226 FILLER_77_36
*12227 FILLER_77_38
*12222 FILLER_77_8
*12313 FILLER_78_0
*12319 FILLER_78_1549
*12320 FILLER_78_1557
*12321 FILLER_78_1565
*12322 FILLER_78_1573
*12323 FILLER_78_1577
*12324 FILLER_78_1580
*12325 FILLER_78_1588
*12326 FILLER_78_1596
*12315 FILLER_78_16
*12327 FILLER_78_1604
*12328 FILLER_78_1612
*12329 FILLER_78_1620
*12330 FILLER_78_1628
*12331 FILLER_78_1636
*12332 FILLER_78_1638
*12333 FILLER_78_1640
*12334 FILLER_78_1648
*12335 FILLER_78_1656
*12336 FILLER_78_1664
*12337 FILLER_78_1672
*12338 FILLER_78_1680
*12339 FILLER_78_1688
*12340 FILLER_78_1696
*12341 FILLER_78_1698
*12342 FILLER_78_1700
*12343 FILLER_78_1708
*12344 FILLER_78_1716
*12345 FILLER_78_1724
*12346 FILLER_78_1732
*12347 FILLER_78_1740
*12348 FILLER_78_1748
*12349 FILLER_78_1756
*12350 FILLER_78_1758
*12351 FILLER_78_1760
*12352 FILLER_78_1768
*12353 FILLER_78_1776
*12354 FILLER_78_1784
*12355 FILLER_78_1792
*12356 FILLER_78_1800
*12357 FILLER_78_1808
*12358 FILLER_78_1816
*12359 FILLER_78_1818
*12360 FILLER_78_1820
*12361 FILLER_78_1828
*12362 FILLER_78_1836
*12363 FILLER_78_1844
*12364 FILLER_78_1852
*12365 FILLER_78_1860
*12366 FILLER_78_1868
*12367 FILLER_78_1876
*12368 FILLER_78_1878
*12369 FILLER_78_1880
*12370 FILLER_78_1888
*12371 FILLER_78_1896
*12372 FILLER_78_1904
*12373 FILLER_78_1912
*12374 FILLER_78_1920
*12375 FILLER_78_1928
*12376 FILLER_78_1936
*12377 FILLER_78_1938
*12378 FILLER_78_1940
*12379 FILLER_78_1948
*12380 FILLER_78_1956
*12381 FILLER_78_1964
*12382 FILLER_78_1972
*12383 FILLER_78_1980
*12384 FILLER_78_1988
*12385 FILLER_78_1996
*12386 FILLER_78_1998
*12387 FILLER_78_2000
*12388 FILLER_78_2008
*12389 FILLER_78_2016
*12390 FILLER_78_2024
*12391 FILLER_78_2032
*12392 FILLER_78_2040
*12393 FILLER_78_2048
*12394 FILLER_78_2056
*12395 FILLER_78_2058
*12396 FILLER_78_2060
*12397 FILLER_78_2068
*12398 FILLER_78_2076
*12399 FILLER_78_2084
*12400 FILLER_78_2092
*12401 FILLER_78_2100
*12402 FILLER_78_2108
*12403 FILLER_78_2116
*12404 FILLER_78_2118
*12405 FILLER_78_2120
*12406 FILLER_78_2128
*12316 FILLER_78_24
*12317 FILLER_78_28
*12318 FILLER_78_31
*12314 FILLER_78_8
*12407 FILLER_79_0
*12414 FILLER_79_1549
*12415 FILLER_79_1557
*12416 FILLER_79_1565
*12417 FILLER_79_1573
*12418 FILLER_79_1581
*12419 FILLER_79_1589
*12420 FILLER_79_1597
*12409 FILLER_79_16
*12421 FILLER_79_1605
*12422 FILLER_79_1610
*12423 FILLER_79_1618
*12424 FILLER_79_1626
*12425 FILLER_79_1634
*12426 FILLER_79_1642
*12427 FILLER_79_1650
*12428 FILLER_79_1658
*12429 FILLER_79_1666
*12430 FILLER_79_1668
*12431 FILLER_79_1670
*12432 FILLER_79_1678
*12433 FILLER_79_1686
*12434 FILLER_79_1694
*12435 FILLER_79_1702
*12436 FILLER_79_1710
*12437 FILLER_79_1718
*12438 FILLER_79_1726
*12439 FILLER_79_1728
*12440 FILLER_79_1730
*12441 FILLER_79_1738
*12442 FILLER_79_1746
*12443 FILLER_79_1754
*12444 FILLER_79_1762
*12445 FILLER_79_1770
*12446 FILLER_79_1778
*12447 FILLER_79_1786
*12448 FILLER_79_1788
*12449 FILLER_79_1790
*12450 FILLER_79_1798
*12451 FILLER_79_1806
*12452 FILLER_79_1814
*12453 FILLER_79_1822
*12454 FILLER_79_1830
*12455 FILLER_79_1838
*12456 FILLER_79_1846
*12457 FILLER_79_1848
*12458 FILLER_79_1850
*12459 FILLER_79_1858
*12460 FILLER_79_1866
*12461 FILLER_79_1874
*12462 FILLER_79_1882
*12463 FILLER_79_1890
*12464 FILLER_79_1898
*12465 FILLER_79_1906
*12466 FILLER_79_1908
*12467 FILLER_79_1910
*12468 FILLER_79_1918
*12469 FILLER_79_1926
*12470 FILLER_79_1934
*12471 FILLER_79_1942
*12472 FILLER_79_1950
*12473 FILLER_79_1958
*12474 FILLER_79_1966
*12475 FILLER_79_1968
*12476 FILLER_79_1970
*12477 FILLER_79_1978
*12478 FILLER_79_1986
*12479 FILLER_79_1994
*12480 FILLER_79_2002
*12481 FILLER_79_2010
*12482 FILLER_79_2018
*12483 FILLER_79_2026
*12484 FILLER_79_2028
*12485 FILLER_79_2030
*12486 FILLER_79_2038
*12487 FILLER_79_2046
*12488 FILLER_79_2054
*12489 FILLER_79_2062
*12490 FILLER_79_2070
*12491 FILLER_79_2078
*12492 FILLER_79_2086
*12493 FILLER_79_2088
*12494 FILLER_79_2090
*12495 FILLER_79_2098
*12496 FILLER_79_2106
*12497 FILLER_79_2114
*12498 FILLER_79_2122
*12410 FILLER_79_24
*12411 FILLER_79_32
*12412 FILLER_79_36
*12413 FILLER_79_38
*12408 FILLER_79_8
*5711 FILLER_7_0
*5718 FILLER_7_1549
*5719 FILLER_7_1557
*5720 FILLER_7_1565
*5721 FILLER_7_1573
*5722 FILLER_7_1581
*5723 FILLER_7_1589
*5724 FILLER_7_1597
*5713 FILLER_7_16
*5725 FILLER_7_1605
*5726 FILLER_7_1610
*5727 FILLER_7_1618
*5728 FILLER_7_1626
*5729 FILLER_7_1634
*5730 FILLER_7_1642
*5731 FILLER_7_1650
*5732 FILLER_7_1658
*5733 FILLER_7_1666
*5734 FILLER_7_1668
*5735 FILLER_7_1670
*5736 FILLER_7_1678
*5737 FILLER_7_1686
*5738 FILLER_7_1694
*5739 FILLER_7_1702
*5740 FILLER_7_1710
*5741 FILLER_7_1718
*5742 FILLER_7_1726
*5743 FILLER_7_1728
*5744 FILLER_7_1730
*5745 FILLER_7_1738
*5746 FILLER_7_1746
*5747 FILLER_7_1754
*5748 FILLER_7_1762
*5749 FILLER_7_1770
*5750 FILLER_7_1778
*5751 FILLER_7_1786
*5752 FILLER_7_1788
*5753 FILLER_7_1790
*5754 FILLER_7_1798
*5755 FILLER_7_1806
*5756 FILLER_7_1814
*5757 FILLER_7_1822
*5758 FILLER_7_1830
*5759 FILLER_7_1838
*5760 FILLER_7_1846
*5761 FILLER_7_1848
*5762 FILLER_7_1850
*5763 FILLER_7_1858
*5764 FILLER_7_1866
*5765 FILLER_7_1874
*5766 FILLER_7_1882
*5767 FILLER_7_1890
*5768 FILLER_7_1898
*5769 FILLER_7_1906
*5770 FILLER_7_1908
*5771 FILLER_7_1910
*5772 FILLER_7_1918
*5773 FILLER_7_1926
*5774 FILLER_7_1934
*5775 FILLER_7_1942
*5776 FILLER_7_1950
*5777 FILLER_7_1958
*5778 FILLER_7_1966
*5779 FILLER_7_1968
*5780 FILLER_7_1970
*5781 FILLER_7_1978
*5782 FILLER_7_1986
*5783 FILLER_7_1994
*5784 FILLER_7_2002
*5785 FILLER_7_2010
*5786 FILLER_7_2018
*5787 FILLER_7_2026
*5788 FILLER_7_2028
*5789 FILLER_7_2030
*5790 FILLER_7_2038
*5791 FILLER_7_2046
*5792 FILLER_7_2054
*5793 FILLER_7_2062
*5794 FILLER_7_2070
*5795 FILLER_7_2078
*5796 FILLER_7_2086
*5797 FILLER_7_2088
*5798 FILLER_7_2090
*5799 FILLER_7_2098
*5800 FILLER_7_2106
*5801 FILLER_7_2114
*5802 FILLER_7_2122
*5714 FILLER_7_24
*5715 FILLER_7_32
*5716 FILLER_7_36
*5717 FILLER_7_38
*5712 FILLER_7_8
*12499 FILLER_80_0
*12505 FILLER_80_1549
*12506 FILLER_80_1557
*12507 FILLER_80_1565
*12508 FILLER_80_1573
*12509 FILLER_80_1577
*12510 FILLER_80_1580
*12511 FILLER_80_1588
*12512 FILLER_80_1596
*12501 FILLER_80_16
*12513 FILLER_80_1604
*12514 FILLER_80_1612
*12515 FILLER_80_1620
*12516 FILLER_80_1628
*12517 FILLER_80_1636
*12518 FILLER_80_1638
*12519 FILLER_80_1640
*12520 FILLER_80_1648
*12521 FILLER_80_1656
*12522 FILLER_80_1664
*12523 FILLER_80_1672
*12524 FILLER_80_1680
*12525 FILLER_80_1688
*12526 FILLER_80_1696
*12527 FILLER_80_1698
*12528 FILLER_80_1700
*12529 FILLER_80_1708
*12530 FILLER_80_1716
*12531 FILLER_80_1724
*12532 FILLER_80_1732
*12533 FILLER_80_1740
*12534 FILLER_80_1748
*12535 FILLER_80_1756
*12536 FILLER_80_1758
*12537 FILLER_80_1760
*12538 FILLER_80_1768
*12539 FILLER_80_1776
*12540 FILLER_80_1784
*12541 FILLER_80_1792
*12542 FILLER_80_1800
*12543 FILLER_80_1808
*12544 FILLER_80_1816
*12545 FILLER_80_1818
*12546 FILLER_80_1820
*12547 FILLER_80_1828
*12548 FILLER_80_1836
*12549 FILLER_80_1844
*12550 FILLER_80_1852
*12551 FILLER_80_1860
*12552 FILLER_80_1868
*12553 FILLER_80_1876
*12554 FILLER_80_1878
*12555 FILLER_80_1880
*12556 FILLER_80_1888
*12557 FILLER_80_1896
*12558 FILLER_80_1904
*12559 FILLER_80_1912
*12560 FILLER_80_1920
*12561 FILLER_80_1928
*12562 FILLER_80_1936
*12563 FILLER_80_1938
*12564 FILLER_80_1940
*12565 FILLER_80_1948
*12566 FILLER_80_1956
*12567 FILLER_80_1964
*12568 FILLER_80_1972
*12569 FILLER_80_1980
*12570 FILLER_80_1988
*12571 FILLER_80_1996
*12572 FILLER_80_1998
*12573 FILLER_80_2000
*12574 FILLER_80_2008
*12575 FILLER_80_2016
*12576 FILLER_80_2024
*12577 FILLER_80_2032
*12578 FILLER_80_2040
*12579 FILLER_80_2048
*12580 FILLER_80_2056
*12581 FILLER_80_2058
*12582 FILLER_80_2060
*12583 FILLER_80_2068
*12584 FILLER_80_2076
*12585 FILLER_80_2084
*12586 FILLER_80_2092
*12587 FILLER_80_2100
*12588 FILLER_80_2108
*12589 FILLER_80_2116
*12590 FILLER_80_2118
*12591 FILLER_80_2120
*12592 FILLER_80_2128
*12502 FILLER_80_24
*12503 FILLER_80_28
*12504 FILLER_80_31
*12500 FILLER_80_8
*12593 FILLER_81_0
*12600 FILLER_81_1549
*12601 FILLER_81_1557
*12602 FILLER_81_1565
*12603 FILLER_81_1573
*12604 FILLER_81_1581
*12605 FILLER_81_1589
*12606 FILLER_81_1597
*12595 FILLER_81_16
*12607 FILLER_81_1605
*12608 FILLER_81_1610
*12609 FILLER_81_1618
*12610 FILLER_81_1626
*12611 FILLER_81_1634
*12612 FILLER_81_1642
*12613 FILLER_81_1650
*12614 FILLER_81_1658
*12615 FILLER_81_1666
*12616 FILLER_81_1668
*12617 FILLER_81_1670
*12618 FILLER_81_1678
*12619 FILLER_81_1686
*12620 FILLER_81_1694
*12621 FILLER_81_1702
*12622 FILLER_81_1710
*12623 FILLER_81_1718
*12624 FILLER_81_1726
*12625 FILLER_81_1728
*12626 FILLER_81_1730
*12627 FILLER_81_1738
*12628 FILLER_81_1746
*12629 FILLER_81_1754
*12630 FILLER_81_1762
*12631 FILLER_81_1770
*12632 FILLER_81_1778
*12633 FILLER_81_1786
*12634 FILLER_81_1788
*12635 FILLER_81_1790
*12636 FILLER_81_1798
*12637 FILLER_81_1806
*12638 FILLER_81_1814
*12639 FILLER_81_1822
*12640 FILLER_81_1830
*12641 FILLER_81_1838
*12642 FILLER_81_1846
*12643 FILLER_81_1848
*12644 FILLER_81_1850
*12645 FILLER_81_1858
*12646 FILLER_81_1866
*12647 FILLER_81_1874
*12648 FILLER_81_1882
*12649 FILLER_81_1890
*12650 FILLER_81_1898
*12651 FILLER_81_1906
*12652 FILLER_81_1908
*12653 FILLER_81_1910
*12654 FILLER_81_1918
*12655 FILLER_81_1926
*12656 FILLER_81_1934
*12657 FILLER_81_1942
*12658 FILLER_81_1950
*12659 FILLER_81_1958
*12660 FILLER_81_1966
*12661 FILLER_81_1968
*12662 FILLER_81_1970
*12663 FILLER_81_1978
*12664 FILLER_81_1986
*12665 FILLER_81_1994
*12666 FILLER_81_2002
*12667 FILLER_81_2010
*12668 FILLER_81_2018
*12669 FILLER_81_2026
*12670 FILLER_81_2028
*12671 FILLER_81_2030
*12672 FILLER_81_2038
*12673 FILLER_81_2046
*12674 FILLER_81_2054
*12675 FILLER_81_2062
*12676 FILLER_81_2070
*12677 FILLER_81_2078
*12678 FILLER_81_2086
*12679 FILLER_81_2088
*12680 FILLER_81_2090
*12681 FILLER_81_2098
*12682 FILLER_81_2106
*12683 FILLER_81_2114
*12684 FILLER_81_2122
*12596 FILLER_81_24
*12597 FILLER_81_32
*12598 FILLER_81_36
*12599 FILLER_81_38
*12594 FILLER_81_8
*12685 FILLER_82_0
*12691 FILLER_82_1549
*12692 FILLER_82_1557
*12693 FILLER_82_1565
*12694 FILLER_82_1573
*12695 FILLER_82_1577
*12696 FILLER_82_1580
*12697 FILLER_82_1588
*12698 FILLER_82_1596
*12687 FILLER_82_16
*12699 FILLER_82_1604
*12700 FILLER_82_1612
*12701 FILLER_82_1620
*12702 FILLER_82_1628
*12703 FILLER_82_1636
*12704 FILLER_82_1638
*12705 FILLER_82_1640
*12706 FILLER_82_1648
*12707 FILLER_82_1656
*12708 FILLER_82_1664
*12709 FILLER_82_1672
*12710 FILLER_82_1680
*12711 FILLER_82_1688
*12712 FILLER_82_1696
*12713 FILLER_82_1698
*12714 FILLER_82_1700
*12715 FILLER_82_1708
*12716 FILLER_82_1716
*12717 FILLER_82_1724
*12718 FILLER_82_1732
*12719 FILLER_82_1740
*12720 FILLER_82_1748
*12721 FILLER_82_1756
*12722 FILLER_82_1758
*12723 FILLER_82_1760
*12724 FILLER_82_1768
*12725 FILLER_82_1776
*12726 FILLER_82_1784
*12727 FILLER_82_1792
*12728 FILLER_82_1800
*12729 FILLER_82_1808
*12730 FILLER_82_1816
*12731 FILLER_82_1818
*12732 FILLER_82_1820
*12733 FILLER_82_1828
*12734 FILLER_82_1836
*12735 FILLER_82_1844
*12736 FILLER_82_1852
*12737 FILLER_82_1860
*12738 FILLER_82_1868
*12739 FILLER_82_1876
*12740 FILLER_82_1878
*12741 FILLER_82_1880
*12742 FILLER_82_1888
*12743 FILLER_82_1896
*12744 FILLER_82_1904
*12745 FILLER_82_1912
*12746 FILLER_82_1920
*12747 FILLER_82_1928
*12748 FILLER_82_1936
*12749 FILLER_82_1938
*12750 FILLER_82_1940
*12751 FILLER_82_1948
*12752 FILLER_82_1956
*12753 FILLER_82_1964
*12754 FILLER_82_1972
*12755 FILLER_82_1980
*12756 FILLER_82_1988
*12757 FILLER_82_1996
*12758 FILLER_82_1998
*12759 FILLER_82_2000
*12760 FILLER_82_2008
*12761 FILLER_82_2016
*12762 FILLER_82_2024
*12763 FILLER_82_2032
*12764 FILLER_82_2040
*12765 FILLER_82_2048
*12766 FILLER_82_2056
*12767 FILLER_82_2058
*12768 FILLER_82_2060
*12769 FILLER_82_2068
*12770 FILLER_82_2076
*12771 FILLER_82_2084
*12772 FILLER_82_2092
*12773 FILLER_82_2100
*12774 FILLER_82_2108
*12775 FILLER_82_2116
*12776 FILLER_82_2118
*12777 FILLER_82_2120
*12778 FILLER_82_2128
*12688 FILLER_82_24
*12689 FILLER_82_28
*12690 FILLER_82_31
*12686 FILLER_82_8
*12779 FILLER_83_0
*12786 FILLER_83_1549
*12787 FILLER_83_1557
*12788 FILLER_83_1565
*12789 FILLER_83_1573
*12790 FILLER_83_1581
*12791 FILLER_83_1589
*12792 FILLER_83_1597
*12781 FILLER_83_16
*12793 FILLER_83_1605
*12794 FILLER_83_1610
*12795 FILLER_83_1618
*12796 FILLER_83_1626
*12797 FILLER_83_1634
*12798 FILLER_83_1642
*12799 FILLER_83_1650
*12800 FILLER_83_1658
*12801 FILLER_83_1666
*12802 FILLER_83_1668
*12803 FILLER_83_1670
*12804 FILLER_83_1678
*12805 FILLER_83_1686
*12806 FILLER_83_1694
*12807 FILLER_83_1702
*12808 FILLER_83_1710
*12809 FILLER_83_1718
*12810 FILLER_83_1726
*12811 FILLER_83_1728
*12812 FILLER_83_1730
*12813 FILLER_83_1738
*12814 FILLER_83_1746
*12815 FILLER_83_1754
*12816 FILLER_83_1762
*12817 FILLER_83_1770
*12818 FILLER_83_1778
*12819 FILLER_83_1786
*12820 FILLER_83_1788
*12821 FILLER_83_1790
*12822 FILLER_83_1798
*12823 FILLER_83_1806
*12824 FILLER_83_1814
*12825 FILLER_83_1822
*12826 FILLER_83_1830
*12827 FILLER_83_1838
*12828 FILLER_83_1846
*12829 FILLER_83_1848
*12830 FILLER_83_1850
*12831 FILLER_83_1858
*12832 FILLER_83_1866
*12833 FILLER_83_1874
*12834 FILLER_83_1882
*12835 FILLER_83_1890
*12836 FILLER_83_1898
*12837 FILLER_83_1906
*12838 FILLER_83_1908
*12839 FILLER_83_1910
*12840 FILLER_83_1918
*12841 FILLER_83_1926
*12842 FILLER_83_1934
*12843 FILLER_83_1942
*12844 FILLER_83_1950
*12845 FILLER_83_1958
*12846 FILLER_83_1966
*12847 FILLER_83_1968
*12848 FILLER_83_1970
*12849 FILLER_83_1978
*12850 FILLER_83_1986
*12851 FILLER_83_1994
*12852 FILLER_83_2002
*12853 FILLER_83_2010
*12854 FILLER_83_2018
*12855 FILLER_83_2026
*12856 FILLER_83_2028
*12857 FILLER_83_2030
*12858 FILLER_83_2038
*12859 FILLER_83_2046
*12860 FILLER_83_2054
*12861 FILLER_83_2062
*12862 FILLER_83_2070
*12863 FILLER_83_2078
*12864 FILLER_83_2086
*12865 FILLER_83_2088
*12866 FILLER_83_2090
*12867 FILLER_83_2098
*12868 FILLER_83_2106
*12869 FILLER_83_2114
*12870 FILLER_83_2122
*12782 FILLER_83_24
*12783 FILLER_83_32
*12784 FILLER_83_36
*12785 FILLER_83_38
*12780 FILLER_83_8
*12871 FILLER_84_0
*12877 FILLER_84_1549
*12878 FILLER_84_1557
*12879 FILLER_84_1565
*12880 FILLER_84_1573
*12881 FILLER_84_1577
*12882 FILLER_84_1580
*12883 FILLER_84_1588
*12884 FILLER_84_1596
*12873 FILLER_84_16
*12885 FILLER_84_1604
*12886 FILLER_84_1612
*12887 FILLER_84_1620
*12888 FILLER_84_1628
*12889 FILLER_84_1636
*12890 FILLER_84_1638
*12891 FILLER_84_1640
*12892 FILLER_84_1648
*12893 FILLER_84_1656
*12894 FILLER_84_1664
*12895 FILLER_84_1672
*12896 FILLER_84_1680
*12897 FILLER_84_1688
*12898 FILLER_84_1696
*12899 FILLER_84_1698
*12900 FILLER_84_1700
*12901 FILLER_84_1708
*12902 FILLER_84_1716
*12903 FILLER_84_1724
*12904 FILLER_84_1732
*12905 FILLER_84_1740
*12906 FILLER_84_1748
*12907 FILLER_84_1756
*12908 FILLER_84_1758
*12909 FILLER_84_1760
*12910 FILLER_84_1768
*12911 FILLER_84_1776
*12912 FILLER_84_1784
*12913 FILLER_84_1792
*12914 FILLER_84_1800
*12915 FILLER_84_1808
*12916 FILLER_84_1816
*12917 FILLER_84_1818
*12918 FILLER_84_1820
*12919 FILLER_84_1828
*12920 FILLER_84_1836
*12921 FILLER_84_1844
*12922 FILLER_84_1852
*12923 FILLER_84_1860
*12924 FILLER_84_1868
*12925 FILLER_84_1876
*12926 FILLER_84_1878
*12927 FILLER_84_1880
*12928 FILLER_84_1888
*12929 FILLER_84_1896
*12930 FILLER_84_1904
*12931 FILLER_84_1912
*12932 FILLER_84_1920
*12933 FILLER_84_1928
*12934 FILLER_84_1936
*12935 FILLER_84_1938
*12936 FILLER_84_1940
*12937 FILLER_84_1948
*12938 FILLER_84_1956
*12939 FILLER_84_1964
*12940 FILLER_84_1972
*12941 FILLER_84_1980
*12942 FILLER_84_1988
*12943 FILLER_84_1996
*12944 FILLER_84_1998
*12945 FILLER_84_2000
*12946 FILLER_84_2008
*12947 FILLER_84_2016
*12948 FILLER_84_2024
*12949 FILLER_84_2032
*12950 FILLER_84_2040
*12951 FILLER_84_2048
*12952 FILLER_84_2056
*12953 FILLER_84_2058
*12954 FILLER_84_2060
*12955 FILLER_84_2068
*12956 FILLER_84_2076
*12957 FILLER_84_2084
*12958 FILLER_84_2092
*12959 FILLER_84_2100
*12960 FILLER_84_2108
*12961 FILLER_84_2116
*12962 FILLER_84_2118
*12963 FILLER_84_2120
*12964 FILLER_84_2128
*12874 FILLER_84_24
*12875 FILLER_84_28
*12876 FILLER_84_31
*12872 FILLER_84_8
*12965 FILLER_85_0
*12972 FILLER_85_1549
*12973 FILLER_85_1557
*12974 FILLER_85_1565
*12975 FILLER_85_1573
*12976 FILLER_85_1581
*12977 FILLER_85_1589
*12978 FILLER_85_1597
*12967 FILLER_85_16
*12979 FILLER_85_1605
*12980 FILLER_85_1610
*12981 FILLER_85_1618
*12982 FILLER_85_1626
*12983 FILLER_85_1634
*12984 FILLER_85_1642
*12985 FILLER_85_1650
*12986 FILLER_85_1658
*12987 FILLER_85_1666
*12988 FILLER_85_1668
*12989 FILLER_85_1670
*12990 FILLER_85_1678
*12991 FILLER_85_1686
*12992 FILLER_85_1694
*12993 FILLER_85_1702
*12994 FILLER_85_1710
*12995 FILLER_85_1718
*12996 FILLER_85_1726
*12997 FILLER_85_1728
*12998 FILLER_85_1730
*12999 FILLER_85_1738
*13000 FILLER_85_1746
*13001 FILLER_85_1754
*13002 FILLER_85_1762
*13003 FILLER_85_1770
*13004 FILLER_85_1778
*13005 FILLER_85_1786
*13006 FILLER_85_1788
*13007 FILLER_85_1790
*13008 FILLER_85_1798
*13009 FILLER_85_1806
*13010 FILLER_85_1814
*13011 FILLER_85_1822
*13012 FILLER_85_1830
*13013 FILLER_85_1838
*13014 FILLER_85_1846
*13015 FILLER_85_1848
*13016 FILLER_85_1850
*13017 FILLER_85_1858
*13018 FILLER_85_1866
*13019 FILLER_85_1874
*13020 FILLER_85_1882
*13021 FILLER_85_1890
*13022 FILLER_85_1898
*13023 FILLER_85_1906
*13024 FILLER_85_1908
*13025 FILLER_85_1910
*13026 FILLER_85_1918
*13027 FILLER_85_1926
*13028 FILLER_85_1934
*13029 FILLER_85_1942
*13030 FILLER_85_1950
*13031 FILLER_85_1958
*13032 FILLER_85_1966
*13033 FILLER_85_1968
*13034 FILLER_85_1970
*13035 FILLER_85_1978
*13036 FILLER_85_1986
*13037 FILLER_85_1994
*13038 FILLER_85_2002
*13039 FILLER_85_2010
*13040 FILLER_85_2018
*13041 FILLER_85_2026
*13042 FILLER_85_2028
*13043 FILLER_85_2030
*13044 FILLER_85_2038
*13045 FILLER_85_2046
*13046 FILLER_85_2054
*13047 FILLER_85_2062
*13048 FILLER_85_2070
*13049 FILLER_85_2078
*13050 FILLER_85_2086
*13051 FILLER_85_2088
*13052 FILLER_85_2090
*13053 FILLER_85_2098
*13054 FILLER_85_2106
*13055 FILLER_85_2114
*13056 FILLER_85_2122
*12968 FILLER_85_24
*12969 FILLER_85_32
*12970 FILLER_85_36
*12971 FILLER_85_38
*12966 FILLER_85_8
*13057 FILLER_86_0
*13063 FILLER_86_1549
*13064 FILLER_86_1557
*13065 FILLER_86_1565
*13066 FILLER_86_1573
*13067 FILLER_86_1577
*13068 FILLER_86_1580
*13069 FILLER_86_1588
*13070 FILLER_86_1596
*13059 FILLER_86_16
*13071 FILLER_86_1604
*13072 FILLER_86_1612
*13073 FILLER_86_1620
*13074 FILLER_86_1628
*13075 FILLER_86_1636
*13076 FILLER_86_1638
*13077 FILLER_86_1640
*13078 FILLER_86_1648
*13079 FILLER_86_1656
*13080 FILLER_86_1664
*13081 FILLER_86_1672
*13082 FILLER_86_1680
*13083 FILLER_86_1688
*13084 FILLER_86_1696
*13085 FILLER_86_1698
*13086 FILLER_86_1700
*13087 FILLER_86_1708
*13088 FILLER_86_1716
*13089 FILLER_86_1724
*13090 FILLER_86_1732
*13091 FILLER_86_1740
*13092 FILLER_86_1748
*13093 FILLER_86_1756
*13094 FILLER_86_1758
*13095 FILLER_86_1760
*13096 FILLER_86_1768
*13097 FILLER_86_1776
*13098 FILLER_86_1784
*13099 FILLER_86_1792
*13100 FILLER_86_1800
*13101 FILLER_86_1808
*13102 FILLER_86_1816
*13103 FILLER_86_1818
*13104 FILLER_86_1820
*13105 FILLER_86_1828
*13106 FILLER_86_1836
*13107 FILLER_86_1844
*13108 FILLER_86_1852
*13109 FILLER_86_1860
*13110 FILLER_86_1868
*13111 FILLER_86_1876
*13112 FILLER_86_1878
*13113 FILLER_86_1880
*13114 FILLER_86_1888
*13115 FILLER_86_1896
*13116 FILLER_86_1904
*13117 FILLER_86_1912
*13118 FILLER_86_1920
*13119 FILLER_86_1928
*13120 FILLER_86_1936
*13121 FILLER_86_1938
*13122 FILLER_86_1940
*13123 FILLER_86_1948
*13124 FILLER_86_1956
*13125 FILLER_86_1964
*13126 FILLER_86_1972
*13127 FILLER_86_1980
*13128 FILLER_86_1988
*13129 FILLER_86_1996
*13130 FILLER_86_1998
*13131 FILLER_86_2000
*13132 FILLER_86_2008
*13133 FILLER_86_2016
*13134 FILLER_86_2024
*13135 FILLER_86_2032
*13136 FILLER_86_2040
*13137 FILLER_86_2048
*13138 FILLER_86_2056
*13139 FILLER_86_2058
*13140 FILLER_86_2060
*13141 FILLER_86_2068
*13142 FILLER_86_2076
*13143 FILLER_86_2084
*13144 FILLER_86_2092
*13145 FILLER_86_2100
*13146 FILLER_86_2108
*13147 FILLER_86_2116
*13148 FILLER_86_2118
*13149 FILLER_86_2120
*13150 FILLER_86_2128
*13060 FILLER_86_24
*13061 FILLER_86_28
*13062 FILLER_86_31
*13058 FILLER_86_8
*13151 FILLER_87_0
*13158 FILLER_87_1549
*13159 FILLER_87_1557
*13160 FILLER_87_1565
*13161 FILLER_87_1573
*13162 FILLER_87_1581
*13163 FILLER_87_1589
*13164 FILLER_87_1597
*13153 FILLER_87_16
*13165 FILLER_87_1605
*13166 FILLER_87_1610
*13167 FILLER_87_1618
*13168 FILLER_87_1626
*13169 FILLER_87_1634
*13170 FILLER_87_1642
*13171 FILLER_87_1650
*13172 FILLER_87_1658
*13173 FILLER_87_1666
*13174 FILLER_87_1668
*13175 FILLER_87_1670
*13176 FILLER_87_1678
*13177 FILLER_87_1686
*13178 FILLER_87_1694
*13179 FILLER_87_1702
*13180 FILLER_87_1710
*13181 FILLER_87_1718
*13182 FILLER_87_1726
*13183 FILLER_87_1728
*13184 FILLER_87_1730
*13185 FILLER_87_1738
*13186 FILLER_87_1746
*13187 FILLER_87_1754
*13188 FILLER_87_1762
*13189 FILLER_87_1770
*13190 FILLER_87_1778
*13191 FILLER_87_1786
*13192 FILLER_87_1788
*13193 FILLER_87_1790
*13194 FILLER_87_1798
*13195 FILLER_87_1806
*13196 FILLER_87_1814
*13197 FILLER_87_1822
*13198 FILLER_87_1830
*13199 FILLER_87_1838
*13200 FILLER_87_1846
*13201 FILLER_87_1848
*13202 FILLER_87_1850
*13203 FILLER_87_1858
*13204 FILLER_87_1866
*13205 FILLER_87_1874
*13206 FILLER_87_1882
*13207 FILLER_87_1890
*13208 FILLER_87_1898
*13209 FILLER_87_1906
*13210 FILLER_87_1908
*13211 FILLER_87_1910
*13212 FILLER_87_1918
*13213 FILLER_87_1926
*13214 FILLER_87_1934
*13215 FILLER_87_1942
*13216 FILLER_87_1950
*13217 FILLER_87_1958
*13218 FILLER_87_1966
*13219 FILLER_87_1968
*13220 FILLER_87_1970
*13221 FILLER_87_1978
*13222 FILLER_87_1986
*13223 FILLER_87_1994
*13224 FILLER_87_2002
*13225 FILLER_87_2010
*13226 FILLER_87_2018
*13227 FILLER_87_2026
*13228 FILLER_87_2028
*13229 FILLER_87_2030
*13230 FILLER_87_2038
*13231 FILLER_87_2046
*13232 FILLER_87_2054
*13233 FILLER_87_2062
*13234 FILLER_87_2070
*13235 FILLER_87_2078
*13236 FILLER_87_2086
*13237 FILLER_87_2088
*13238 FILLER_87_2090
*13239 FILLER_87_2098
*13240 FILLER_87_2106
*13241 FILLER_87_2114
*13242 FILLER_87_2122
*13154 FILLER_87_24
*13155 FILLER_87_32
*13156 FILLER_87_36
*13157 FILLER_87_38
*13152 FILLER_87_8
*13243 FILLER_88_0
*13249 FILLER_88_1549
*13250 FILLER_88_1557
*13251 FILLER_88_1565
*13252 FILLER_88_1573
*13253 FILLER_88_1577
*13254 FILLER_88_1580
*13255 FILLER_88_1588
*13256 FILLER_88_1596
*13245 FILLER_88_16
*13257 FILLER_88_1604
*13258 FILLER_88_1612
*13259 FILLER_88_1620
*13260 FILLER_88_1628
*13261 FILLER_88_1636
*13262 FILLER_88_1638
*13263 FILLER_88_1640
*13264 FILLER_88_1648
*13265 FILLER_88_1656
*13266 FILLER_88_1664
*13267 FILLER_88_1672
*13268 FILLER_88_1680
*13269 FILLER_88_1688
*13270 FILLER_88_1696
*13271 FILLER_88_1698
*13272 FILLER_88_1700
*13273 FILLER_88_1708
*13274 FILLER_88_1716
*13275 FILLER_88_1724
*13276 FILLER_88_1732
*13277 FILLER_88_1740
*13278 FILLER_88_1748
*13279 FILLER_88_1756
*13280 FILLER_88_1758
*13281 FILLER_88_1760
*13282 FILLER_88_1768
*13283 FILLER_88_1776
*13284 FILLER_88_1784
*13285 FILLER_88_1792
*13286 FILLER_88_1800
*13287 FILLER_88_1808
*13288 FILLER_88_1816
*13289 FILLER_88_1818
*13290 FILLER_88_1820
*13291 FILLER_88_1828
*13292 FILLER_88_1836
*13293 FILLER_88_1844
*13294 FILLER_88_1852
*13295 FILLER_88_1860
*13296 FILLER_88_1868
*13297 FILLER_88_1876
*13298 FILLER_88_1878
*13299 FILLER_88_1880
*13300 FILLER_88_1888
*13301 FILLER_88_1896
*13302 FILLER_88_1904
*13303 FILLER_88_1912
*13304 FILLER_88_1920
*13305 FILLER_88_1928
*13306 FILLER_88_1936
*13307 FILLER_88_1938
*13308 FILLER_88_1940
*13309 FILLER_88_1948
*13310 FILLER_88_1956
*13311 FILLER_88_1964
*13312 FILLER_88_1972
*13313 FILLER_88_1980
*13314 FILLER_88_1988
*13315 FILLER_88_1996
*13316 FILLER_88_1998
*13317 FILLER_88_2000
*13318 FILLER_88_2008
*13319 FILLER_88_2016
*13320 FILLER_88_2024
*13321 FILLER_88_2032
*13322 FILLER_88_2040
*13323 FILLER_88_2048
*13324 FILLER_88_2056
*13325 FILLER_88_2058
*13326 FILLER_88_2060
*13327 FILLER_88_2068
*13328 FILLER_88_2076
*13329 FILLER_88_2084
*13330 FILLER_88_2092
*13331 FILLER_88_2100
*13332 FILLER_88_2108
*13333 FILLER_88_2116
*13334 FILLER_88_2118
*13335 FILLER_88_2120
*13336 FILLER_88_2128
*13246 FILLER_88_24
*13247 FILLER_88_28
*13248 FILLER_88_31
*13244 FILLER_88_8
*13337 FILLER_89_0
*13344 FILLER_89_1549
*13345 FILLER_89_1557
*13346 FILLER_89_1565
*13347 FILLER_89_1573
*13348 FILLER_89_1581
*13349 FILLER_89_1589
*13350 FILLER_89_1597
*13339 FILLER_89_16
*13351 FILLER_89_1605
*13352 FILLER_89_1610
*13353 FILLER_89_1618
*13354 FILLER_89_1626
*13355 FILLER_89_1634
*13356 FILLER_89_1642
*13357 FILLER_89_1650
*13358 FILLER_89_1658
*13359 FILLER_89_1666
*13360 FILLER_89_1668
*13361 FILLER_89_1670
*13362 FILLER_89_1678
*13363 FILLER_89_1686
*13364 FILLER_89_1694
*13365 FILLER_89_1702
*13366 FILLER_89_1710
*13367 FILLER_89_1718
*13368 FILLER_89_1726
*13369 FILLER_89_1728
*13370 FILLER_89_1730
*13371 FILLER_89_1738
*13372 FILLER_89_1746
*13373 FILLER_89_1754
*13374 FILLER_89_1762
*13375 FILLER_89_1770
*13376 FILLER_89_1778
*13377 FILLER_89_1786
*13378 FILLER_89_1788
*13379 FILLER_89_1790
*13380 FILLER_89_1798
*13381 FILLER_89_1806
*13382 FILLER_89_1814
*13383 FILLER_89_1822
*13384 FILLER_89_1830
*13385 FILLER_89_1838
*13386 FILLER_89_1846
*13387 FILLER_89_1848
*13388 FILLER_89_1850
*13389 FILLER_89_1858
*13390 FILLER_89_1866
*13391 FILLER_89_1874
*13392 FILLER_89_1882
*13393 FILLER_89_1890
*13394 FILLER_89_1898
*13395 FILLER_89_1906
*13396 FILLER_89_1908
*13397 FILLER_89_1910
*13398 FILLER_89_1918
*13399 FILLER_89_1926
*13400 FILLER_89_1934
*13401 FILLER_89_1942
*13402 FILLER_89_1950
*13403 FILLER_89_1958
*13404 FILLER_89_1966
*13405 FILLER_89_1968
*13406 FILLER_89_1970
*13407 FILLER_89_1978
*13408 FILLER_89_1986
*13409 FILLER_89_1994
*13410 FILLER_89_2002
*13411 FILLER_89_2010
*13412 FILLER_89_2018
*13413 FILLER_89_2026
*13414 FILLER_89_2028
*13415 FILLER_89_2030
*13416 FILLER_89_2038
*13417 FILLER_89_2046
*13418 FILLER_89_2054
*13419 FILLER_89_2062
*13420 FILLER_89_2070
*13421 FILLER_89_2078
*13422 FILLER_89_2086
*13423 FILLER_89_2088
*13424 FILLER_89_2090
*13425 FILLER_89_2098
*13426 FILLER_89_2106
*13427 FILLER_89_2114
*13428 FILLER_89_2122
*13340 FILLER_89_24
*13341 FILLER_89_32
*13342 FILLER_89_36
*13343 FILLER_89_38
*13338 FILLER_89_8
*5803 FILLER_8_0
*5809 FILLER_8_1549
*5810 FILLER_8_1557
*5811 FILLER_8_1565
*5812 FILLER_8_1573
*5813 FILLER_8_1577
*5814 FILLER_8_1580
*5815 FILLER_8_1588
*5816 FILLER_8_1596
*5805 FILLER_8_16
*5817 FILLER_8_1604
*5818 FILLER_8_1612
*5819 FILLER_8_1620
*5820 FILLER_8_1628
*5821 FILLER_8_1636
*5822 FILLER_8_1638
*5823 FILLER_8_1640
*5824 FILLER_8_1648
*5825 FILLER_8_1656
*5826 FILLER_8_1664
*5827 FILLER_8_1672
*5828 FILLER_8_1680
*5829 FILLER_8_1688
*5830 FILLER_8_1696
*5831 FILLER_8_1698
*5832 FILLER_8_1700
*5833 FILLER_8_1708
*5834 FILLER_8_1716
*5835 FILLER_8_1724
*5836 FILLER_8_1732
*5837 FILLER_8_1740
*5838 FILLER_8_1748
*5839 FILLER_8_1756
*5840 FILLER_8_1758
*5841 FILLER_8_1760
*5842 FILLER_8_1768
*5843 FILLER_8_1776
*5844 FILLER_8_1784
*5845 FILLER_8_1792
*5846 FILLER_8_1800
*5847 FILLER_8_1808
*5848 FILLER_8_1816
*5849 FILLER_8_1818
*5850 FILLER_8_1820
*5851 FILLER_8_1828
*5852 FILLER_8_1836
*5853 FILLER_8_1844
*5854 FILLER_8_1852
*5855 FILLER_8_1860
*5856 FILLER_8_1868
*5857 FILLER_8_1876
*5858 FILLER_8_1878
*5859 FILLER_8_1880
*5860 FILLER_8_1888
*5861 FILLER_8_1896
*5862 FILLER_8_1904
*5863 FILLER_8_1912
*5864 FILLER_8_1920
*5865 FILLER_8_1928
*5866 FILLER_8_1936
*5867 FILLER_8_1938
*5868 FILLER_8_1940
*5869 FILLER_8_1948
*5870 FILLER_8_1956
*5871 FILLER_8_1964
*5872 FILLER_8_1972
*5873 FILLER_8_1980
*5874 FILLER_8_1988
*5875 FILLER_8_1996
*5876 FILLER_8_1998
*5877 FILLER_8_2000
*5878 FILLER_8_2008
*5879 FILLER_8_2016
*5880 FILLER_8_2024
*5881 FILLER_8_2032
*5882 FILLER_8_2040
*5883 FILLER_8_2048
*5884 FILLER_8_2056
*5885 FILLER_8_2058
*5886 FILLER_8_2060
*5887 FILLER_8_2068
*5888 FILLER_8_2076
*5889 FILLER_8_2084
*5890 FILLER_8_2092
*5891 FILLER_8_2100
*5892 FILLER_8_2108
*5893 FILLER_8_2116
*5894 FILLER_8_2118
*5895 FILLER_8_2120
*5896 FILLER_8_2128
*5806 FILLER_8_24
*5807 FILLER_8_28
*5808 FILLER_8_31
*5804 FILLER_8_8
*13429 FILLER_90_0
*13435 FILLER_90_1549
*13436 FILLER_90_1557
*13437 FILLER_90_1565
*13438 FILLER_90_1573
*13439 FILLER_90_1577
*13440 FILLER_90_1580
*13441 FILLER_90_1588
*13442 FILLER_90_1596
*13431 FILLER_90_16
*13443 FILLER_90_1604
*13444 FILLER_90_1612
*13445 FILLER_90_1620
*13446 FILLER_90_1628
*13447 FILLER_90_1636
*13448 FILLER_90_1638
*13449 FILLER_90_1640
*13450 FILLER_90_1648
*13451 FILLER_90_1656
*13452 FILLER_90_1664
*13453 FILLER_90_1672
*13454 FILLER_90_1680
*13455 FILLER_90_1688
*13456 FILLER_90_1696
*13457 FILLER_90_1698
*13458 FILLER_90_1700
*13459 FILLER_90_1708
*13460 FILLER_90_1716
*13461 FILLER_90_1724
*13462 FILLER_90_1732
*13463 FILLER_90_1740
*13464 FILLER_90_1748
*13465 FILLER_90_1756
*13466 FILLER_90_1758
*13467 FILLER_90_1760
*13468 FILLER_90_1768
*13469 FILLER_90_1776
*13470 FILLER_90_1784
*13471 FILLER_90_1792
*13472 FILLER_90_1800
*13473 FILLER_90_1808
*13474 FILLER_90_1816
*13475 FILLER_90_1818
*13476 FILLER_90_1820
*13477 FILLER_90_1828
*13478 FILLER_90_1836
*13479 FILLER_90_1844
*13480 FILLER_90_1852
*13481 FILLER_90_1860
*13482 FILLER_90_1868
*13483 FILLER_90_1876
*13484 FILLER_90_1878
*13485 FILLER_90_1880
*13486 FILLER_90_1888
*13487 FILLER_90_1896
*13488 FILLER_90_1904
*13489 FILLER_90_1912
*13490 FILLER_90_1920
*13491 FILLER_90_1928
*13492 FILLER_90_1936
*13493 FILLER_90_1938
*13494 FILLER_90_1940
*13495 FILLER_90_1948
*13496 FILLER_90_1956
*13497 FILLER_90_1964
*13498 FILLER_90_1972
*13499 FILLER_90_1980
*13500 FILLER_90_1988
*13501 FILLER_90_1996
*13502 FILLER_90_1998
*13503 FILLER_90_2000
*13504 FILLER_90_2008
*13505 FILLER_90_2016
*13506 FILLER_90_2024
*13507 FILLER_90_2032
*13508 FILLER_90_2040
*13509 FILLER_90_2048
*13510 FILLER_90_2056
*13511 FILLER_90_2058
*13512 FILLER_90_2060
*13513 FILLER_90_2068
*13514 FILLER_90_2076
*13515 FILLER_90_2084
*13516 FILLER_90_2092
*13517 FILLER_90_2100
*13518 FILLER_90_2108
*13519 FILLER_90_2116
*13520 FILLER_90_2118
*13521 FILLER_90_2120
*13522 FILLER_90_2128
*13432 FILLER_90_24
*13433 FILLER_90_28
*13434 FILLER_90_31
*13430 FILLER_90_8
*13523 FILLER_91_0
*13530 FILLER_91_1549
*13531 FILLER_91_1557
*13532 FILLER_91_1565
*13533 FILLER_91_1573
*13534 FILLER_91_1581
*13535 FILLER_91_1589
*13536 FILLER_91_1597
*13525 FILLER_91_16
*13537 FILLER_91_1605
*13538 FILLER_91_1610
*13539 FILLER_91_1618
*13540 FILLER_91_1626
*13541 FILLER_91_1634
*13542 FILLER_91_1642
*13543 FILLER_91_1650
*13544 FILLER_91_1658
*13545 FILLER_91_1666
*13546 FILLER_91_1668
*13547 FILLER_91_1670
*13548 FILLER_91_1678
*13549 FILLER_91_1686
*13550 FILLER_91_1694
*13551 FILLER_91_1702
*13552 FILLER_91_1710
*13553 FILLER_91_1718
*13554 FILLER_91_1726
*13555 FILLER_91_1728
*13556 FILLER_91_1730
*13557 FILLER_91_1738
*13558 FILLER_91_1746
*13559 FILLER_91_1754
*13560 FILLER_91_1762
*13561 FILLER_91_1770
*13562 FILLER_91_1778
*13563 FILLER_91_1786
*13564 FILLER_91_1788
*13565 FILLER_91_1790
*13566 FILLER_91_1798
*13567 FILLER_91_1806
*13568 FILLER_91_1814
*13569 FILLER_91_1822
*13570 FILLER_91_1830
*13571 FILLER_91_1838
*13572 FILLER_91_1846
*13573 FILLER_91_1848
*13574 FILLER_91_1850
*13575 FILLER_91_1858
*13576 FILLER_91_1866
*13577 FILLER_91_1874
*13578 FILLER_91_1882
*13579 FILLER_91_1890
*13580 FILLER_91_1898
*13581 FILLER_91_1906
*13582 FILLER_91_1908
*13583 FILLER_91_1910
*13584 FILLER_91_1918
*13585 FILLER_91_1926
*13586 FILLER_91_1934
*13587 FILLER_91_1942
*13588 FILLER_91_1950
*13589 FILLER_91_1958
*13590 FILLER_91_1966
*13591 FILLER_91_1968
*13592 FILLER_91_1970
*13593 FILLER_91_1978
*13594 FILLER_91_1986
*13595 FILLER_91_1994
*13596 FILLER_91_2002
*13597 FILLER_91_2010
*13598 FILLER_91_2018
*13599 FILLER_91_2026
*13600 FILLER_91_2028
*13601 FILLER_91_2030
*13602 FILLER_91_2038
*13603 FILLER_91_2046
*13604 FILLER_91_2054
*13605 FILLER_91_2062
*13606 FILLER_91_2070
*13607 FILLER_91_2078
*13608 FILLER_91_2086
*13609 FILLER_91_2088
*13610 FILLER_91_2090
*13611 FILLER_91_2098
*13612 FILLER_91_2106
*13613 FILLER_91_2114
*13614 FILLER_91_2122
*13526 FILLER_91_24
*13527 FILLER_91_32
*13528 FILLER_91_36
*13529 FILLER_91_38
*13524 FILLER_91_8
*13615 FILLER_92_0
*13621 FILLER_92_1549
*13622 FILLER_92_1557
*13623 FILLER_92_1565
*13624 FILLER_92_1573
*13625 FILLER_92_1577
*13626 FILLER_92_1580
*13627 FILLER_92_1588
*13628 FILLER_92_1596
*13617 FILLER_92_16
*13629 FILLER_92_1604
*13630 FILLER_92_1612
*13631 FILLER_92_1620
*13632 FILLER_92_1628
*13633 FILLER_92_1636
*13634 FILLER_92_1638
*13635 FILLER_92_1640
*13636 FILLER_92_1648
*13637 FILLER_92_1656
*13638 FILLER_92_1664
*13639 FILLER_92_1672
*13640 FILLER_92_1680
*13641 FILLER_92_1688
*13642 FILLER_92_1696
*13643 FILLER_92_1698
*13644 FILLER_92_1700
*13645 FILLER_92_1708
*13646 FILLER_92_1716
*13647 FILLER_92_1724
*13648 FILLER_92_1732
*13649 FILLER_92_1740
*13650 FILLER_92_1748
*13651 FILLER_92_1756
*13652 FILLER_92_1758
*13653 FILLER_92_1760
*13654 FILLER_92_1768
*13655 FILLER_92_1776
*13656 FILLER_92_1784
*13657 FILLER_92_1792
*13658 FILLER_92_1800
*13659 FILLER_92_1808
*13660 FILLER_92_1816
*13661 FILLER_92_1818
*13662 FILLER_92_1820
*13663 FILLER_92_1828
*13664 FILLER_92_1836
*13665 FILLER_92_1844
*13666 FILLER_92_1852
*13667 FILLER_92_1860
*13668 FILLER_92_1868
*13669 FILLER_92_1876
*13670 FILLER_92_1878
*13671 FILLER_92_1880
*13672 FILLER_92_1888
*13673 FILLER_92_1896
*13674 FILLER_92_1904
*13675 FILLER_92_1912
*13676 FILLER_92_1920
*13677 FILLER_92_1928
*13678 FILLER_92_1936
*13679 FILLER_92_1938
*13680 FILLER_92_1940
*13681 FILLER_92_1948
*13682 FILLER_92_1956
*13683 FILLER_92_1964
*13684 FILLER_92_1972
*13685 FILLER_92_1980
*13686 FILLER_92_1988
*13687 FILLER_92_1996
*13688 FILLER_92_1998
*13689 FILLER_92_2000
*13690 FILLER_92_2008
*13691 FILLER_92_2016
*13692 FILLER_92_2024
*13693 FILLER_92_2032
*13694 FILLER_92_2040
*13695 FILLER_92_2048
*13696 FILLER_92_2056
*13697 FILLER_92_2058
*13698 FILLER_92_2060
*13699 FILLER_92_2068
*13700 FILLER_92_2076
*13701 FILLER_92_2084
*13702 FILLER_92_2092
*13703 FILLER_92_2100
*13704 FILLER_92_2108
*13705 FILLER_92_2116
*13706 FILLER_92_2118
*13707 FILLER_92_2120
*13708 FILLER_92_2128
*13618 FILLER_92_24
*13619 FILLER_92_28
*13620 FILLER_92_31
*13616 FILLER_92_8
*13709 FILLER_93_0
*13716 FILLER_93_1549
*13717 FILLER_93_1557
*13718 FILLER_93_1565
*13719 FILLER_93_1573
*13720 FILLER_93_1581
*13721 FILLER_93_1589
*13722 FILLER_93_1597
*13711 FILLER_93_16
*13723 FILLER_93_1605
*13724 FILLER_93_1610
*13725 FILLER_93_1618
*13726 FILLER_93_1626
*13727 FILLER_93_1634
*13728 FILLER_93_1642
*13729 FILLER_93_1650
*13730 FILLER_93_1658
*13731 FILLER_93_1666
*13732 FILLER_93_1668
*13733 FILLER_93_1670
*13734 FILLER_93_1678
*13735 FILLER_93_1686
*13736 FILLER_93_1694
*13737 FILLER_93_1702
*13738 FILLER_93_1710
*13739 FILLER_93_1718
*13740 FILLER_93_1726
*13741 FILLER_93_1728
*13742 FILLER_93_1730
*13743 FILLER_93_1738
*13744 FILLER_93_1746
*13745 FILLER_93_1754
*13746 FILLER_93_1762
*13747 FILLER_93_1770
*13748 FILLER_93_1778
*13749 FILLER_93_1786
*13750 FILLER_93_1788
*13751 FILLER_93_1790
*13752 FILLER_93_1798
*13753 FILLER_93_1806
*13754 FILLER_93_1814
*13755 FILLER_93_1822
*13756 FILLER_93_1830
*13757 FILLER_93_1838
*13758 FILLER_93_1846
*13759 FILLER_93_1848
*13760 FILLER_93_1850
*13761 FILLER_93_1858
*13762 FILLER_93_1866
*13763 FILLER_93_1874
*13764 FILLER_93_1882
*13765 FILLER_93_1890
*13766 FILLER_93_1898
*13767 FILLER_93_1906
*13768 FILLER_93_1908
*13769 FILLER_93_1910
*13770 FILLER_93_1918
*13771 FILLER_93_1926
*13772 FILLER_93_1934
*13773 FILLER_93_1942
*13774 FILLER_93_1950
*13775 FILLER_93_1958
*13776 FILLER_93_1966
*13777 FILLER_93_1968
*13778 FILLER_93_1970
*13779 FILLER_93_1978
*13780 FILLER_93_1986
*13781 FILLER_93_1994
*13782 FILLER_93_2002
*13783 FILLER_93_2010
*13784 FILLER_93_2018
*13785 FILLER_93_2026
*13786 FILLER_93_2028
*13787 FILLER_93_2030
*13788 FILLER_93_2038
*13789 FILLER_93_2046
*13790 FILLER_93_2054
*13791 FILLER_93_2062
*13792 FILLER_93_2070
*13793 FILLER_93_2078
*13794 FILLER_93_2086
*13795 FILLER_93_2088
*13796 FILLER_93_2090
*13797 FILLER_93_2098
*13798 FILLER_93_2106
*13799 FILLER_93_2114
*13800 FILLER_93_2122
*13712 FILLER_93_24
*13713 FILLER_93_32
*13714 FILLER_93_36
*13715 FILLER_93_38
*13710 FILLER_93_8
*13801 FILLER_94_0
*13807 FILLER_94_1549
*13808 FILLER_94_1557
*13809 FILLER_94_1565
*13810 FILLER_94_1573
*13811 FILLER_94_1577
*13812 FILLER_94_1580
*13813 FILLER_94_1588
*13814 FILLER_94_1596
*13803 FILLER_94_16
*13815 FILLER_94_1604
*13816 FILLER_94_1612
*13817 FILLER_94_1620
*13818 FILLER_94_1628
*13819 FILLER_94_1636
*13820 FILLER_94_1638
*13821 FILLER_94_1640
*13822 FILLER_94_1648
*13823 FILLER_94_1656
*13824 FILLER_94_1664
*13825 FILLER_94_1672
*13826 FILLER_94_1680
*13827 FILLER_94_1688
*13828 FILLER_94_1696
*13829 FILLER_94_1698
*13830 FILLER_94_1700
*13831 FILLER_94_1708
*13832 FILLER_94_1716
*13833 FILLER_94_1724
*13834 FILLER_94_1732
*13835 FILLER_94_1740
*13836 FILLER_94_1748
*13837 FILLER_94_1756
*13838 FILLER_94_1758
*13839 FILLER_94_1760
*13840 FILLER_94_1768
*13841 FILLER_94_1776
*13842 FILLER_94_1784
*13843 FILLER_94_1792
*13844 FILLER_94_1800
*13845 FILLER_94_1808
*13846 FILLER_94_1816
*13847 FILLER_94_1818
*13848 FILLER_94_1820
*13849 FILLER_94_1828
*13850 FILLER_94_1836
*13851 FILLER_94_1844
*13852 FILLER_94_1852
*13853 FILLER_94_1860
*13854 FILLER_94_1868
*13855 FILLER_94_1876
*13856 FILLER_94_1878
*13857 FILLER_94_1880
*13858 FILLER_94_1888
*13859 FILLER_94_1896
*13860 FILLER_94_1904
*13861 FILLER_94_1912
*13862 FILLER_94_1920
*13863 FILLER_94_1928
*13864 FILLER_94_1936
*13865 FILLER_94_1938
*13866 FILLER_94_1940
*13867 FILLER_94_1948
*13868 FILLER_94_1956
*13869 FILLER_94_1964
*13870 FILLER_94_1972
*13871 FILLER_94_1980
*13872 FILLER_94_1988
*13873 FILLER_94_1996
*13874 FILLER_94_1998
*13875 FILLER_94_2000
*13876 FILLER_94_2008
*13877 FILLER_94_2016
*13878 FILLER_94_2024
*13879 FILLER_94_2032
*13880 FILLER_94_2040
*13881 FILLER_94_2048
*13882 FILLER_94_2056
*13883 FILLER_94_2058
*13884 FILLER_94_2060
*13885 FILLER_94_2068
*13886 FILLER_94_2076
*13887 FILLER_94_2084
*13888 FILLER_94_2092
*13889 FILLER_94_2100
*13890 FILLER_94_2108
*13891 FILLER_94_2116
*13892 FILLER_94_2118
*13893 FILLER_94_2120
*13894 FILLER_94_2128
*13804 FILLER_94_24
*13805 FILLER_94_28
*13806 FILLER_94_31
*13802 FILLER_94_8
*13895 FILLER_95_0
*13902 FILLER_95_1549
*13903 FILLER_95_1557
*13904 FILLER_95_1565
*13905 FILLER_95_1573
*13906 FILLER_95_1581
*13907 FILLER_95_1589
*13908 FILLER_95_1597
*13897 FILLER_95_16
*13909 FILLER_95_1605
*13910 FILLER_95_1610
*13911 FILLER_95_1618
*13912 FILLER_95_1626
*13913 FILLER_95_1634
*13914 FILLER_95_1642
*13915 FILLER_95_1650
*13916 FILLER_95_1658
*13917 FILLER_95_1666
*13918 FILLER_95_1668
*13919 FILLER_95_1670
*13920 FILLER_95_1678
*13921 FILLER_95_1686
*13922 FILLER_95_1694
*13923 FILLER_95_1702
*13924 FILLER_95_1710
*13925 FILLER_95_1718
*13926 FILLER_95_1726
*13927 FILLER_95_1728
*13928 FILLER_95_1730
*13929 FILLER_95_1738
*13930 FILLER_95_1746
*13931 FILLER_95_1754
*13932 FILLER_95_1762
*13933 FILLER_95_1770
*13934 FILLER_95_1778
*13935 FILLER_95_1786
*13936 FILLER_95_1788
*13937 FILLER_95_1790
*13938 FILLER_95_1798
*13939 FILLER_95_1806
*13940 FILLER_95_1814
*13941 FILLER_95_1822
*13942 FILLER_95_1830
*13943 FILLER_95_1838
*13944 FILLER_95_1846
*13945 FILLER_95_1848
*13946 FILLER_95_1850
*13947 FILLER_95_1858
*13948 FILLER_95_1866
*13949 FILLER_95_1874
*13950 FILLER_95_1882
*13951 FILLER_95_1890
*13952 FILLER_95_1898
*13953 FILLER_95_1906
*13954 FILLER_95_1908
*13955 FILLER_95_1910
*13956 FILLER_95_1918
*13957 FILLER_95_1926
*13958 FILLER_95_1934
*13959 FILLER_95_1942
*13960 FILLER_95_1950
*13961 FILLER_95_1958
*13962 FILLER_95_1966
*13963 FILLER_95_1968
*13964 FILLER_95_1970
*13965 FILLER_95_1978
*13966 FILLER_95_1986
*13967 FILLER_95_1994
*13968 FILLER_95_2002
*13969 FILLER_95_2010
*13970 FILLER_95_2018
*13971 FILLER_95_2026
*13972 FILLER_95_2028
*13973 FILLER_95_2030
*13974 FILLER_95_2038
*13975 FILLER_95_2046
*13976 FILLER_95_2054
*13977 FILLER_95_2062
*13978 FILLER_95_2070
*13979 FILLER_95_2078
*13980 FILLER_95_2086
*13981 FILLER_95_2088
*13982 FILLER_95_2090
*13983 FILLER_95_2098
*13984 FILLER_95_2106
*13985 FILLER_95_2114
*13986 FILLER_95_2122
*13898 FILLER_95_24
*13899 FILLER_95_32
*13900 FILLER_95_36
*13901 FILLER_95_38
*13896 FILLER_95_8
*13987 FILLER_96_0
*13993 FILLER_96_1549
*13994 FILLER_96_1557
*13995 FILLER_96_1565
*13996 FILLER_96_1573
*13997 FILLER_96_1577
*13998 FILLER_96_1580
*13999 FILLER_96_1588
*14000 FILLER_96_1596
*13989 FILLER_96_16
*14001 FILLER_96_1604
*14002 FILLER_96_1612
*14003 FILLER_96_1620
*14004 FILLER_96_1628
*14005 FILLER_96_1636
*14006 FILLER_96_1638
*14007 FILLER_96_1640
*14008 FILLER_96_1648
*14009 FILLER_96_1656
*14010 FILLER_96_1664
*14011 FILLER_96_1672
*14012 FILLER_96_1680
*14013 FILLER_96_1688
*14014 FILLER_96_1696
*14015 FILLER_96_1698
*14016 FILLER_96_1700
*14017 FILLER_96_1708
*14018 FILLER_96_1716
*14019 FILLER_96_1724
*14020 FILLER_96_1732
*14021 FILLER_96_1740
*14022 FILLER_96_1748
*14023 FILLER_96_1756
*14024 FILLER_96_1758
*14025 FILLER_96_1760
*14026 FILLER_96_1768
*14027 FILLER_96_1776
*14028 FILLER_96_1784
*14029 FILLER_96_1792
*14030 FILLER_96_1800
*14031 FILLER_96_1808
*14032 FILLER_96_1816
*14033 FILLER_96_1818
*14034 FILLER_96_1820
*14035 FILLER_96_1828
*14036 FILLER_96_1836
*14037 FILLER_96_1844
*14038 FILLER_96_1852
*14039 FILLER_96_1860
*14040 FILLER_96_1868
*14041 FILLER_96_1876
*14042 FILLER_96_1878
*14043 FILLER_96_1880
*14044 FILLER_96_1888
*14045 FILLER_96_1896
*14046 FILLER_96_1904
*14047 FILLER_96_1912
*14048 FILLER_96_1920
*14049 FILLER_96_1928
*14050 FILLER_96_1936
*14051 FILLER_96_1938
*14052 FILLER_96_1940
*14053 FILLER_96_1948
*14054 FILLER_96_1956
*14055 FILLER_96_1964
*14056 FILLER_96_1972
*14057 FILLER_96_1980
*14058 FILLER_96_1988
*14059 FILLER_96_1996
*14060 FILLER_96_1998
*14061 FILLER_96_2000
*14062 FILLER_96_2008
*14063 FILLER_96_2016
*14064 FILLER_96_2024
*14065 FILLER_96_2032
*14066 FILLER_96_2040
*14067 FILLER_96_2048
*14068 FILLER_96_2056
*14069 FILLER_96_2058
*14070 FILLER_96_2060
*14071 FILLER_96_2068
*14072 FILLER_96_2076
*14073 FILLER_96_2084
*14074 FILLER_96_2092
*14075 FILLER_96_2100
*14076 FILLER_96_2108
*14077 FILLER_96_2116
*14078 FILLER_96_2118
*14079 FILLER_96_2120
*14080 FILLER_96_2128
*13990 FILLER_96_24
*13991 FILLER_96_28
*13992 FILLER_96_31
*13988 FILLER_96_8
*14081 FILLER_97_0
*14088 FILLER_97_1549
*14089 FILLER_97_1557
*14090 FILLER_97_1565
*14091 FILLER_97_1573
*14092 FILLER_97_1581
*14093 FILLER_97_1589
*14094 FILLER_97_1597
*14083 FILLER_97_16
*14095 FILLER_97_1605
*14096 FILLER_97_1610
*14097 FILLER_97_1618
*14098 FILLER_97_1626
*14099 FILLER_97_1634
*14100 FILLER_97_1642
*14101 FILLER_97_1650
*14102 FILLER_97_1658
*14103 FILLER_97_1666
*14104 FILLER_97_1668
*14105 FILLER_97_1670
*14106 FILLER_97_1678
*14107 FILLER_97_1686
*14108 FILLER_97_1694
*14109 FILLER_97_1702
*14110 FILLER_97_1710
*14111 FILLER_97_1718
*14112 FILLER_97_1726
*14113 FILLER_97_1728
*14114 FILLER_97_1730
*14115 FILLER_97_1738
*14116 FILLER_97_1746
*14117 FILLER_97_1754
*14118 FILLER_97_1762
*14119 FILLER_97_1770
*14120 FILLER_97_1778
*14121 FILLER_97_1786
*14122 FILLER_97_1788
*14123 FILLER_97_1790
*14124 FILLER_97_1798
*14125 FILLER_97_1806
*14126 FILLER_97_1814
*14127 FILLER_97_1822
*14128 FILLER_97_1830
*14129 FILLER_97_1838
*14130 FILLER_97_1846
*14131 FILLER_97_1848
*14132 FILLER_97_1850
*14133 FILLER_97_1858
*14134 FILLER_97_1866
*14135 FILLER_97_1874
*14136 FILLER_97_1882
*14137 FILLER_97_1890
*14138 FILLER_97_1898
*14139 FILLER_97_1906
*14140 FILLER_97_1908
*14141 FILLER_97_1910
*14142 FILLER_97_1918
*14143 FILLER_97_1926
*14144 FILLER_97_1934
*14145 FILLER_97_1942
*14146 FILLER_97_1950
*14147 FILLER_97_1958
*14148 FILLER_97_1966
*14149 FILLER_97_1968
*14150 FILLER_97_1970
*14151 FILLER_97_1978
*14152 FILLER_97_1986
*14153 FILLER_97_1994
*14154 FILLER_97_2002
*14155 FILLER_97_2010
*14156 FILLER_97_2018
*14157 FILLER_97_2026
*14158 FILLER_97_2028
*14159 FILLER_97_2030
*14160 FILLER_97_2038
*14161 FILLER_97_2046
*14162 FILLER_97_2054
*14163 FILLER_97_2062
*14164 FILLER_97_2070
*14165 FILLER_97_2078
*14166 FILLER_97_2086
*14167 FILLER_97_2088
*14168 FILLER_97_2090
*14169 FILLER_97_2098
*14170 FILLER_97_2106
*14171 FILLER_97_2114
*14172 FILLER_97_2122
*14084 FILLER_97_24
*14085 FILLER_97_32
*14086 FILLER_97_36
*14087 FILLER_97_38
*14082 FILLER_97_8
*14173 FILLER_98_0
*14179 FILLER_98_1549
*14180 FILLER_98_1557
*14181 FILLER_98_1565
*14182 FILLER_98_1573
*14183 FILLER_98_1577
*14184 FILLER_98_1580
*14185 FILLER_98_1588
*14186 FILLER_98_1596
*14175 FILLER_98_16
*14187 FILLER_98_1604
*14188 FILLER_98_1612
*14189 FILLER_98_1620
*14190 FILLER_98_1628
*14191 FILLER_98_1636
*14192 FILLER_98_1638
*14193 FILLER_98_1640
*14194 FILLER_98_1648
*14195 FILLER_98_1656
*14196 FILLER_98_1664
*14197 FILLER_98_1672
*14198 FILLER_98_1680
*14199 FILLER_98_1688
*14200 FILLER_98_1696
*14201 FILLER_98_1698
*14202 FILLER_98_1700
*14203 FILLER_98_1708
*14204 FILLER_98_1716
*14205 FILLER_98_1724
*14206 FILLER_98_1732
*14207 FILLER_98_1740
*14208 FILLER_98_1748
*14209 FILLER_98_1756
*14210 FILLER_98_1758
*14211 FILLER_98_1760
*14212 FILLER_98_1768
*14213 FILLER_98_1776
*14214 FILLER_98_1784
*14215 FILLER_98_1792
*14216 FILLER_98_1800
*14217 FILLER_98_1808
*14218 FILLER_98_1816
*14219 FILLER_98_1818
*14220 FILLER_98_1820
*14221 FILLER_98_1828
*14222 FILLER_98_1836
*14223 FILLER_98_1844
*14224 FILLER_98_1852
*14225 FILLER_98_1860
*14226 FILLER_98_1868
*14227 FILLER_98_1876
*14228 FILLER_98_1878
*14229 FILLER_98_1880
*14230 FILLER_98_1888
*14231 FILLER_98_1896
*14232 FILLER_98_1904
*14233 FILLER_98_1912
*14234 FILLER_98_1920
*14235 FILLER_98_1928
*14236 FILLER_98_1936
*14237 FILLER_98_1938
*14238 FILLER_98_1940
*14239 FILLER_98_1948
*14240 FILLER_98_1956
*14241 FILLER_98_1964
*14242 FILLER_98_1972
*14243 FILLER_98_1980
*14244 FILLER_98_1988
*14245 FILLER_98_1996
*14246 FILLER_98_1998
*14247 FILLER_98_2000
*14248 FILLER_98_2008
*14249 FILLER_98_2016
*14250 FILLER_98_2024
*14251 FILLER_98_2032
*14252 FILLER_98_2040
*14253 FILLER_98_2048
*14254 FILLER_98_2056
*14255 FILLER_98_2058
*14256 FILLER_98_2060
*14257 FILLER_98_2068
*14258 FILLER_98_2076
*14259 FILLER_98_2084
*14260 FILLER_98_2092
*14261 FILLER_98_2100
*14262 FILLER_98_2108
*14263 FILLER_98_2116
*14264 FILLER_98_2118
*14265 FILLER_98_2120
*14266 FILLER_98_2128
*14176 FILLER_98_24
*14177 FILLER_98_28
*14178 FILLER_98_31
*14174 FILLER_98_8
*14267 FILLER_99_0
*14274 FILLER_99_1549
*14275 FILLER_99_1557
*14276 FILLER_99_1565
*14277 FILLER_99_1573
*14278 FILLER_99_1581
*14279 FILLER_99_1589
*14280 FILLER_99_1597
*14269 FILLER_99_16
*14281 FILLER_99_1605
*14282 FILLER_99_1610
*14283 FILLER_99_1618
*14284 FILLER_99_1626
*14285 FILLER_99_1634
*14286 FILLER_99_1642
*14287 FILLER_99_1650
*14288 FILLER_99_1658
*14289 FILLER_99_1666
*14290 FILLER_99_1668
*14291 FILLER_99_1670
*14292 FILLER_99_1678
*14293 FILLER_99_1686
*14294 FILLER_99_1694
*14295 FILLER_99_1702
*14296 FILLER_99_1710
*14297 FILLER_99_1718
*14298 FILLER_99_1726
*14299 FILLER_99_1728
*14300 FILLER_99_1730
*14301 FILLER_99_1738
*14302 FILLER_99_1746
*14303 FILLER_99_1754
*14304 FILLER_99_1762
*14305 FILLER_99_1770
*14306 FILLER_99_1778
*14307 FILLER_99_1786
*14308 FILLER_99_1788
*14309 FILLER_99_1790
*14310 FILLER_99_1798
*14311 FILLER_99_1806
*14312 FILLER_99_1814
*14313 FILLER_99_1822
*14314 FILLER_99_1830
*14315 FILLER_99_1838
*14316 FILLER_99_1846
*14317 FILLER_99_1848
*14318 FILLER_99_1850
*14319 FILLER_99_1858
*14320 FILLER_99_1866
*14321 FILLER_99_1874
*14322 FILLER_99_1882
*14323 FILLER_99_1890
*14324 FILLER_99_1898
*14325 FILLER_99_1906
*14326 FILLER_99_1908
*14327 FILLER_99_1910
*14328 FILLER_99_1918
*14329 FILLER_99_1926
*14330 FILLER_99_1934
*14331 FILLER_99_1942
*14332 FILLER_99_1950
*14333 FILLER_99_1958
*14334 FILLER_99_1966
*14335 FILLER_99_1968
*14336 FILLER_99_1970
*14337 FILLER_99_1978
*14338 FILLER_99_1986
*14339 FILLER_99_1994
*14340 FILLER_99_2002
*14341 FILLER_99_2010
*14342 FILLER_99_2018
*14343 FILLER_99_2026
*14344 FILLER_99_2028
*14345 FILLER_99_2030
*14346 FILLER_99_2038
*14347 FILLER_99_2046
*14348 FILLER_99_2054
*14349 FILLER_99_2062
*14350 FILLER_99_2070
*14351 FILLER_99_2078
*14352 FILLER_99_2086
*14353 FILLER_99_2088
*14354 FILLER_99_2090
*14355 FILLER_99_2098
*14356 FILLER_99_2106
*14357 FILLER_99_2114
*14358 FILLER_99_2122
*14270 FILLER_99_24
*14271 FILLER_99_32
*14272 FILLER_99_36
*14273 FILLER_99_38
*14268 FILLER_99_8
*5897 FILLER_9_0
*5904 FILLER_9_1549
*5905 FILLER_9_1557
*5906 FILLER_9_1565
*5907 FILLER_9_1573
*5908 FILLER_9_1581
*5909 FILLER_9_1589
*5910 FILLER_9_1597
*5899 FILLER_9_16
*5911 FILLER_9_1605
*5912 FILLER_9_1610
*5913 FILLER_9_1618
*5914 FILLER_9_1626
*5915 FILLER_9_1634
*5916 FILLER_9_1642
*5917 FILLER_9_1650
*5918 FILLER_9_1658
*5919 FILLER_9_1666
*5920 FILLER_9_1668
*5921 FILLER_9_1670
*5922 FILLER_9_1678
*5923 FILLER_9_1686
*5924 FILLER_9_1694
*5925 FILLER_9_1702
*5926 FILLER_9_1710
*5927 FILLER_9_1718
*5928 FILLER_9_1726
*5929 FILLER_9_1728
*5930 FILLER_9_1730
*5931 FILLER_9_1738
*5932 FILLER_9_1746
*5933 FILLER_9_1754
*5934 FILLER_9_1762
*5935 FILLER_9_1770
*5936 FILLER_9_1778
*5937 FILLER_9_1786
*5938 FILLER_9_1788
*5939 FILLER_9_1790
*5940 FILLER_9_1798
*5941 FILLER_9_1806
*5942 FILLER_9_1814
*5943 FILLER_9_1822
*5944 FILLER_9_1830
*5945 FILLER_9_1838
*5946 FILLER_9_1846
*5947 FILLER_9_1848
*5948 FILLER_9_1850
*5949 FILLER_9_1858
*5950 FILLER_9_1866
*5951 FILLER_9_1874
*5952 FILLER_9_1882
*5953 FILLER_9_1890
*5954 FILLER_9_1898
*5955 FILLER_9_1906
*5956 FILLER_9_1908
*5957 FILLER_9_1910
*5958 FILLER_9_1918
*5959 FILLER_9_1926
*5960 FILLER_9_1934
*5961 FILLER_9_1942
*5962 FILLER_9_1950
*5963 FILLER_9_1958
*5964 FILLER_9_1966
*5965 FILLER_9_1968
*5966 FILLER_9_1970
*5967 FILLER_9_1978
*5968 FILLER_9_1986
*5969 FILLER_9_1994
*5970 FILLER_9_2002
*5971 FILLER_9_2010
*5972 FILLER_9_2018
*5973 FILLER_9_2026
*5974 FILLER_9_2028
*5975 FILLER_9_2030
*5976 FILLER_9_2038
*5977 FILLER_9_2046
*5978 FILLER_9_2054
*5979 FILLER_9_2062
*5980 FILLER_9_2070
*5981 FILLER_9_2078
*5982 FILLER_9_2086
*5983 FILLER_9_2088
*5984 FILLER_9_2090
*5985 FILLER_9_2098
*5986 FILLER_9_2106
*5987 FILLER_9_2114
*5988 FILLER_9_2122
*5900 FILLER_9_24
*5901 FILLER_9_32
*5902 FILLER_9_36
*5903 FILLER_9_38
*5898 FILLER_9_8
*308 TAP_TAPCELL_ROW_0_0
*309 TAP_TAPCELL_ROW_0_1
*318 TAP_TAPCELL_ROW_0_10
*319 TAP_TAPCELL_ROW_0_11
*320 TAP_TAPCELL_ROW_0_12
*321 TAP_TAPCELL_ROW_0_13
*322 TAP_TAPCELL_ROW_0_14
*323 TAP_TAPCELL_ROW_0_15
*324 TAP_TAPCELL_ROW_0_16
*325 TAP_TAPCELL_ROW_0_17
*326 TAP_TAPCELL_ROW_0_18
*327 TAP_TAPCELL_ROW_0_19
*310 TAP_TAPCELL_ROW_0_2
*328 TAP_TAPCELL_ROW_0_20
*329 TAP_TAPCELL_ROW_0_21
*330 TAP_TAPCELL_ROW_0_22
*331 TAP_TAPCELL_ROW_0_23
*332 TAP_TAPCELL_ROW_0_24
*333 TAP_TAPCELL_ROW_0_25
*334 TAP_TAPCELL_ROW_0_26
*335 TAP_TAPCELL_ROW_0_27
*336 TAP_TAPCELL_ROW_0_28
*337 TAP_TAPCELL_ROW_0_29
*311 TAP_TAPCELL_ROW_0_3
*338 TAP_TAPCELL_ROW_0_30
*339 TAP_TAPCELL_ROW_0_31
*340 TAP_TAPCELL_ROW_0_32
*341 TAP_TAPCELL_ROW_0_33
*342 TAP_TAPCELL_ROW_0_34
*343 TAP_TAPCELL_ROW_0_35
*344 TAP_TAPCELL_ROW_0_36
*345 TAP_TAPCELL_ROW_0_37
*346 TAP_TAPCELL_ROW_0_38
*347 TAP_TAPCELL_ROW_0_39
*312 TAP_TAPCELL_ROW_0_4
*348 TAP_TAPCELL_ROW_0_40
*349 TAP_TAPCELL_ROW_0_41
*350 TAP_TAPCELL_ROW_0_42
*351 TAP_TAPCELL_ROW_0_43
*352 TAP_TAPCELL_ROW_0_44
*353 TAP_TAPCELL_ROW_0_45
*354 TAP_TAPCELL_ROW_0_46
*355 TAP_TAPCELL_ROW_0_47
*356 TAP_TAPCELL_ROW_0_48
*357 TAP_TAPCELL_ROW_0_49
*313 TAP_TAPCELL_ROW_0_5
*358 TAP_TAPCELL_ROW_0_50
*359 TAP_TAPCELL_ROW_0_51
*360 TAP_TAPCELL_ROW_0_52
*361 TAP_TAPCELL_ROW_0_53
*362 TAP_TAPCELL_ROW_0_54
*363 TAP_TAPCELL_ROW_0_55
*364 TAP_TAPCELL_ROW_0_56
*365 TAP_TAPCELL_ROW_0_57
*366 TAP_TAPCELL_ROW_0_58
*367 TAP_TAPCELL_ROW_0_59
*314 TAP_TAPCELL_ROW_0_6
*368 TAP_TAPCELL_ROW_0_60
*369 TAP_TAPCELL_ROW_0_61
*370 TAP_TAPCELL_ROW_0_62
*371 TAP_TAPCELL_ROW_0_63
*372 TAP_TAPCELL_ROW_0_64
*373 TAP_TAPCELL_ROW_0_65
*374 TAP_TAPCELL_ROW_0_66
*375 TAP_TAPCELL_ROW_0_67
*376 TAP_TAPCELL_ROW_0_68
*377 TAP_TAPCELL_ROW_0_69
*315 TAP_TAPCELL_ROW_0_7
*316 TAP_TAPCELL_ROW_0_8
*317 TAP_TAPCELL_ROW_0_9
*634 TAP_TAPCELL_ROW_100_1_326
*3321 TAP_TAPCELL_ROW_100_2_3013
*3322 TAP_TAPCELL_ROW_100_2_3014
*3323 TAP_TAPCELL_ROW_100_2_3015
*3324 TAP_TAPCELL_ROW_100_2_3016
*3325 TAP_TAPCELL_ROW_100_2_3017
*3326 TAP_TAPCELL_ROW_100_2_3018
*3327 TAP_TAPCELL_ROW_100_2_3019
*3328 TAP_TAPCELL_ROW_100_2_3020
*3329 TAP_TAPCELL_ROW_100_2_3021
*3330 TAP_TAPCELL_ROW_100_2_3022
*3331 TAP_TAPCELL_ROW_101_2_3023
*3332 TAP_TAPCELL_ROW_101_2_3024
*3333 TAP_TAPCELL_ROW_101_2_3025
*3334 TAP_TAPCELL_ROW_101_2_3026
*3335 TAP_TAPCELL_ROW_101_2_3027
*3336 TAP_TAPCELL_ROW_101_2_3028
*3337 TAP_TAPCELL_ROW_101_2_3029
*3338 TAP_TAPCELL_ROW_101_2_3030
*3339 TAP_TAPCELL_ROW_101_2_3031
*635 TAP_TAPCELL_ROW_102_1_327
*3340 TAP_TAPCELL_ROW_102_2_3032
*3341 TAP_TAPCELL_ROW_102_2_3033
*3342 TAP_TAPCELL_ROW_102_2_3034
*3343 TAP_TAPCELL_ROW_102_2_3035
*3344 TAP_TAPCELL_ROW_102_2_3036
*3345 TAP_TAPCELL_ROW_102_2_3037
*3346 TAP_TAPCELL_ROW_102_2_3038
*3347 TAP_TAPCELL_ROW_102_2_3039
*3348 TAP_TAPCELL_ROW_102_2_3040
*3349 TAP_TAPCELL_ROW_102_2_3041
*3350 TAP_TAPCELL_ROW_103_2_3042
*3351 TAP_TAPCELL_ROW_103_2_3043
*3352 TAP_TAPCELL_ROW_103_2_3044
*3353 TAP_TAPCELL_ROW_103_2_3045
*3354 TAP_TAPCELL_ROW_103_2_3046
*3355 TAP_TAPCELL_ROW_103_2_3047
*3356 TAP_TAPCELL_ROW_103_2_3048
*3357 TAP_TAPCELL_ROW_103_2_3049
*3358 TAP_TAPCELL_ROW_103_2_3050
*636 TAP_TAPCELL_ROW_104_1_328
*3359 TAP_TAPCELL_ROW_104_2_3051
*3360 TAP_TAPCELL_ROW_104_2_3052
*3361 TAP_TAPCELL_ROW_104_2_3053
*3362 TAP_TAPCELL_ROW_104_2_3054
*3363 TAP_TAPCELL_ROW_104_2_3055
*3364 TAP_TAPCELL_ROW_104_2_3056
*3365 TAP_TAPCELL_ROW_104_2_3057
*3366 TAP_TAPCELL_ROW_104_2_3058
*3367 TAP_TAPCELL_ROW_104_2_3059
*3368 TAP_TAPCELL_ROW_104_2_3060
*3369 TAP_TAPCELL_ROW_105_2_3061
*3370 TAP_TAPCELL_ROW_105_2_3062
*3371 TAP_TAPCELL_ROW_105_2_3063
*3372 TAP_TAPCELL_ROW_105_2_3064
*3373 TAP_TAPCELL_ROW_105_2_3065
*3374 TAP_TAPCELL_ROW_105_2_3066
*3375 TAP_TAPCELL_ROW_105_2_3067
*3376 TAP_TAPCELL_ROW_105_2_3068
*3377 TAP_TAPCELL_ROW_105_2_3069
*637 TAP_TAPCELL_ROW_106_1_329
*3378 TAP_TAPCELL_ROW_106_2_3070
*3379 TAP_TAPCELL_ROW_106_2_3071
*3380 TAP_TAPCELL_ROW_106_2_3072
*3381 TAP_TAPCELL_ROW_106_2_3073
*3382 TAP_TAPCELL_ROW_106_2_3074
*3383 TAP_TAPCELL_ROW_106_2_3075
*3384 TAP_TAPCELL_ROW_106_2_3076
*3385 TAP_TAPCELL_ROW_106_2_3077
*3386 TAP_TAPCELL_ROW_106_2_3078
*3387 TAP_TAPCELL_ROW_106_2_3079
*3388 TAP_TAPCELL_ROW_107_2_3080
*3389 TAP_TAPCELL_ROW_107_2_3081
*3390 TAP_TAPCELL_ROW_107_2_3082
*3391 TAP_TAPCELL_ROW_107_2_3083
*3392 TAP_TAPCELL_ROW_107_2_3084
*3393 TAP_TAPCELL_ROW_107_2_3085
*3394 TAP_TAPCELL_ROW_107_2_3086
*3395 TAP_TAPCELL_ROW_107_2_3087
*3396 TAP_TAPCELL_ROW_107_2_3088
*638 TAP_TAPCELL_ROW_108_1_330
*3397 TAP_TAPCELL_ROW_108_2_3089
*3398 TAP_TAPCELL_ROW_108_2_3090
*3399 TAP_TAPCELL_ROW_108_2_3091
*3400 TAP_TAPCELL_ROW_108_2_3092
*3401 TAP_TAPCELL_ROW_108_2_3093
*3402 TAP_TAPCELL_ROW_108_2_3094
*3403 TAP_TAPCELL_ROW_108_2_3095
*3404 TAP_TAPCELL_ROW_108_2_3096
*3405 TAP_TAPCELL_ROW_108_2_3097
*3406 TAP_TAPCELL_ROW_108_2_3098
*3407 TAP_TAPCELL_ROW_109_2_3099
*3408 TAP_TAPCELL_ROW_109_2_3100
*3409 TAP_TAPCELL_ROW_109_2_3101
*3410 TAP_TAPCELL_ROW_109_2_3102
*3411 TAP_TAPCELL_ROW_109_2_3103
*3412 TAP_TAPCELL_ROW_109_2_3104
*3413 TAP_TAPCELL_ROW_109_2_3105
*3414 TAP_TAPCELL_ROW_109_2_3106
*3415 TAP_TAPCELL_ROW_109_2_3107
*589 TAP_TAPCELL_ROW_10_1_281
*2466 TAP_TAPCELL_ROW_10_2_2158
*2467 TAP_TAPCELL_ROW_10_2_2159
*2468 TAP_TAPCELL_ROW_10_2_2160
*2469 TAP_TAPCELL_ROW_10_2_2161
*2470 TAP_TAPCELL_ROW_10_2_2162
*2471 TAP_TAPCELL_ROW_10_2_2163
*2472 TAP_TAPCELL_ROW_10_2_2164
*2473 TAP_TAPCELL_ROW_10_2_2165
*2474 TAP_TAPCELL_ROW_10_2_2166
*2475 TAP_TAPCELL_ROW_10_2_2167
*639 TAP_TAPCELL_ROW_110_1_331
*3416 TAP_TAPCELL_ROW_110_2_3108
*3417 TAP_TAPCELL_ROW_110_2_3109
*3418 TAP_TAPCELL_ROW_110_2_3110
*3419 TAP_TAPCELL_ROW_110_2_3111
*3420 TAP_TAPCELL_ROW_110_2_3112
*3421 TAP_TAPCELL_ROW_110_2_3113
*3422 TAP_TAPCELL_ROW_110_2_3114
*3423 TAP_TAPCELL_ROW_110_2_3115
*3424 TAP_TAPCELL_ROW_110_2_3116
*3425 TAP_TAPCELL_ROW_110_2_3117
*3426 TAP_TAPCELL_ROW_111_2_3118
*3427 TAP_TAPCELL_ROW_111_2_3119
*3428 TAP_TAPCELL_ROW_111_2_3120
*3429 TAP_TAPCELL_ROW_111_2_3121
*3430 TAP_TAPCELL_ROW_111_2_3122
*3431 TAP_TAPCELL_ROW_111_2_3123
*3432 TAP_TAPCELL_ROW_111_2_3124
*3433 TAP_TAPCELL_ROW_111_2_3125
*3434 TAP_TAPCELL_ROW_111_2_3126
*640 TAP_TAPCELL_ROW_112_1_332
*3435 TAP_TAPCELL_ROW_112_2_3127
*3436 TAP_TAPCELL_ROW_112_2_3128
*3437 TAP_TAPCELL_ROW_112_2_3129
*3438 TAP_TAPCELL_ROW_112_2_3130
*3439 TAP_TAPCELL_ROW_112_2_3131
*3440 TAP_TAPCELL_ROW_112_2_3132
*3441 TAP_TAPCELL_ROW_112_2_3133
*3442 TAP_TAPCELL_ROW_112_2_3134
*3443 TAP_TAPCELL_ROW_112_2_3135
*3444 TAP_TAPCELL_ROW_112_2_3136
*3445 TAP_TAPCELL_ROW_113_2_3137
*3446 TAP_TAPCELL_ROW_113_2_3138
*3447 TAP_TAPCELL_ROW_113_2_3139
*3448 TAP_TAPCELL_ROW_113_2_3140
*3449 TAP_TAPCELL_ROW_113_2_3141
*3450 TAP_TAPCELL_ROW_113_2_3142
*3451 TAP_TAPCELL_ROW_113_2_3143
*3452 TAP_TAPCELL_ROW_113_2_3144
*3453 TAP_TAPCELL_ROW_113_2_3145
*641 TAP_TAPCELL_ROW_114_1_333
*3454 TAP_TAPCELL_ROW_114_2_3146
*3455 TAP_TAPCELL_ROW_114_2_3147
*3456 TAP_TAPCELL_ROW_114_2_3148
*3457 TAP_TAPCELL_ROW_114_2_3149
*3458 TAP_TAPCELL_ROW_114_2_3150
*3459 TAP_TAPCELL_ROW_114_2_3151
*3460 TAP_TAPCELL_ROW_114_2_3152
*3461 TAP_TAPCELL_ROW_114_2_3153
*3462 TAP_TAPCELL_ROW_114_2_3154
*3463 TAP_TAPCELL_ROW_114_2_3155
*3464 TAP_TAPCELL_ROW_115_2_3156
*3465 TAP_TAPCELL_ROW_115_2_3157
*3466 TAP_TAPCELL_ROW_115_2_3158
*3467 TAP_TAPCELL_ROW_115_2_3159
*3468 TAP_TAPCELL_ROW_115_2_3160
*3469 TAP_TAPCELL_ROW_115_2_3161
*3470 TAP_TAPCELL_ROW_115_2_3162
*3471 TAP_TAPCELL_ROW_115_2_3163
*3472 TAP_TAPCELL_ROW_115_2_3164
*642 TAP_TAPCELL_ROW_116_334
*643 TAP_TAPCELL_ROW_116_335
*644 TAP_TAPCELL_ROW_116_336
*645 TAP_TAPCELL_ROW_116_337
*646 TAP_TAPCELL_ROW_116_338
*647 TAP_TAPCELL_ROW_116_339
*648 TAP_TAPCELL_ROW_116_340
*649 TAP_TAPCELL_ROW_116_341
*650 TAP_TAPCELL_ROW_116_342
*651 TAP_TAPCELL_ROW_116_343
*652 TAP_TAPCELL_ROW_116_344
*653 TAP_TAPCELL_ROW_116_345
*654 TAP_TAPCELL_ROW_116_346
*655 TAP_TAPCELL_ROW_116_347
*656 TAP_TAPCELL_ROW_116_348
*657 TAP_TAPCELL_ROW_116_349
*658 TAP_TAPCELL_ROW_116_350
*659 TAP_TAPCELL_ROW_116_351
*660 TAP_TAPCELL_ROW_116_352
*661 TAP_TAPCELL_ROW_116_353
*662 TAP_TAPCELL_ROW_116_354
*663 TAP_TAPCELL_ROW_116_355
*664 TAP_TAPCELL_ROW_116_356
*665 TAP_TAPCELL_ROW_116_357
*666 TAP_TAPCELL_ROW_116_358
*667 TAP_TAPCELL_ROW_116_359
*668 TAP_TAPCELL_ROW_116_360
*669 TAP_TAPCELL_ROW_116_361
*670 TAP_TAPCELL_ROW_116_362
*671 TAP_TAPCELL_ROW_116_363
*672 TAP_TAPCELL_ROW_116_364
*673 TAP_TAPCELL_ROW_116_365
*674 TAP_TAPCELL_ROW_116_366
*675 TAP_TAPCELL_ROW_116_367
*676 TAP_TAPCELL_ROW_116_368
*677 TAP_TAPCELL_ROW_116_369
*678 TAP_TAPCELL_ROW_116_370
*679 TAP_TAPCELL_ROW_116_371
*680 TAP_TAPCELL_ROW_116_372
*681 TAP_TAPCELL_ROW_116_373
*682 TAP_TAPCELL_ROW_116_374
*683 TAP_TAPCELL_ROW_116_375
*684 TAP_TAPCELL_ROW_116_376
*685 TAP_TAPCELL_ROW_116_377
*686 TAP_TAPCELL_ROW_116_378
*687 TAP_TAPCELL_ROW_116_379
*688 TAP_TAPCELL_ROW_116_380
*689 TAP_TAPCELL_ROW_116_381
*690 TAP_TAPCELL_ROW_116_382
*691 TAP_TAPCELL_ROW_116_383
*692 TAP_TAPCELL_ROW_116_384
*693 TAP_TAPCELL_ROW_116_385
*694 TAP_TAPCELL_ROW_116_386
*695 TAP_TAPCELL_ROW_116_387
*696 TAP_TAPCELL_ROW_116_388
*697 TAP_TAPCELL_ROW_116_389
*698 TAP_TAPCELL_ROW_116_390
*699 TAP_TAPCELL_ROW_116_391
*700 TAP_TAPCELL_ROW_116_392
*701 TAP_TAPCELL_ROW_116_393
*702 TAP_TAPCELL_ROW_116_394
*703 TAP_TAPCELL_ROW_116_395
*704 TAP_TAPCELL_ROW_116_396
*705 TAP_TAPCELL_ROW_116_397
*706 TAP_TAPCELL_ROW_116_398
*707 TAP_TAPCELL_ROW_116_399
*708 TAP_TAPCELL_ROW_116_400
*709 TAP_TAPCELL_ROW_116_401
*710 TAP_TAPCELL_ROW_116_402
*711 TAP_TAPCELL_ROW_116_403
*712 TAP_TAPCELL_ROW_117_404
*713 TAP_TAPCELL_ROW_117_405
*714 TAP_TAPCELL_ROW_117_406
*715 TAP_TAPCELL_ROW_117_407
*716 TAP_TAPCELL_ROW_117_408
*717 TAP_TAPCELL_ROW_117_409
*718 TAP_TAPCELL_ROW_117_410
*719 TAP_TAPCELL_ROW_117_411
*720 TAP_TAPCELL_ROW_117_412
*721 TAP_TAPCELL_ROW_117_413
*722 TAP_TAPCELL_ROW_117_414
*723 TAP_TAPCELL_ROW_117_415
*724 TAP_TAPCELL_ROW_117_416
*725 TAP_TAPCELL_ROW_117_417
*726 TAP_TAPCELL_ROW_117_418
*727 TAP_TAPCELL_ROW_117_419
*728 TAP_TAPCELL_ROW_117_420
*729 TAP_TAPCELL_ROW_117_421
*730 TAP_TAPCELL_ROW_117_422
*731 TAP_TAPCELL_ROW_117_423
*732 TAP_TAPCELL_ROW_117_424
*733 TAP_TAPCELL_ROW_117_425
*734 TAP_TAPCELL_ROW_117_426
*735 TAP_TAPCELL_ROW_117_427
*736 TAP_TAPCELL_ROW_117_428
*737 TAP_TAPCELL_ROW_117_429
*738 TAP_TAPCELL_ROW_117_430
*739 TAP_TAPCELL_ROW_117_431
*740 TAP_TAPCELL_ROW_117_432
*741 TAP_TAPCELL_ROW_117_433
*742 TAP_TAPCELL_ROW_117_434
*743 TAP_TAPCELL_ROW_117_435
*744 TAP_TAPCELL_ROW_117_436
*745 TAP_TAPCELL_ROW_117_437
*746 TAP_TAPCELL_ROW_117_438
*747 TAP_TAPCELL_ROW_118_439
*748 TAP_TAPCELL_ROW_118_440
*749 TAP_TAPCELL_ROW_118_441
*750 TAP_TAPCELL_ROW_118_442
*751 TAP_TAPCELL_ROW_118_443
*752 TAP_TAPCELL_ROW_118_444
*753 TAP_TAPCELL_ROW_118_445
*754 TAP_TAPCELL_ROW_118_446
*755 TAP_TAPCELL_ROW_118_447
*756 TAP_TAPCELL_ROW_118_448
*757 TAP_TAPCELL_ROW_118_449
*758 TAP_TAPCELL_ROW_118_450
*759 TAP_TAPCELL_ROW_118_451
*760 TAP_TAPCELL_ROW_118_452
*761 TAP_TAPCELL_ROW_118_453
*762 TAP_TAPCELL_ROW_118_454
*763 TAP_TAPCELL_ROW_118_455
*764 TAP_TAPCELL_ROW_118_456
*765 TAP_TAPCELL_ROW_118_457
*766 TAP_TAPCELL_ROW_118_458
*767 TAP_TAPCELL_ROW_118_459
*768 TAP_TAPCELL_ROW_118_460
*769 TAP_TAPCELL_ROW_118_461
*770 TAP_TAPCELL_ROW_118_462
*771 TAP_TAPCELL_ROW_118_463
*772 TAP_TAPCELL_ROW_118_464
*773 TAP_TAPCELL_ROW_118_465
*774 TAP_TAPCELL_ROW_118_466
*775 TAP_TAPCELL_ROW_118_467
*776 TAP_TAPCELL_ROW_118_468
*777 TAP_TAPCELL_ROW_118_469
*778 TAP_TAPCELL_ROW_118_470
*779 TAP_TAPCELL_ROW_118_471
*780 TAP_TAPCELL_ROW_118_472
*781 TAP_TAPCELL_ROW_118_473
*782 TAP_TAPCELL_ROW_119_474
*783 TAP_TAPCELL_ROW_119_475
*784 TAP_TAPCELL_ROW_119_476
*785 TAP_TAPCELL_ROW_119_477
*786 TAP_TAPCELL_ROW_119_478
*787 TAP_TAPCELL_ROW_119_479
*788 TAP_TAPCELL_ROW_119_480
*789 TAP_TAPCELL_ROW_119_481
*790 TAP_TAPCELL_ROW_119_482
*791 TAP_TAPCELL_ROW_119_483
*792 TAP_TAPCELL_ROW_119_484
*793 TAP_TAPCELL_ROW_119_485
*794 TAP_TAPCELL_ROW_119_486
*795 TAP_TAPCELL_ROW_119_487
*796 TAP_TAPCELL_ROW_119_488
*797 TAP_TAPCELL_ROW_119_489
*798 TAP_TAPCELL_ROW_119_490
*799 TAP_TAPCELL_ROW_119_491
*800 TAP_TAPCELL_ROW_119_492
*801 TAP_TAPCELL_ROW_119_493
*802 TAP_TAPCELL_ROW_119_494
*803 TAP_TAPCELL_ROW_119_495
*804 TAP_TAPCELL_ROW_119_496
*805 TAP_TAPCELL_ROW_119_497
*806 TAP_TAPCELL_ROW_119_498
*807 TAP_TAPCELL_ROW_119_499
*808 TAP_TAPCELL_ROW_119_500
*809 TAP_TAPCELL_ROW_119_501
*810 TAP_TAPCELL_ROW_119_502
*811 TAP_TAPCELL_ROW_119_503
*812 TAP_TAPCELL_ROW_119_504
*813 TAP_TAPCELL_ROW_119_505
*814 TAP_TAPCELL_ROW_119_506
*815 TAP_TAPCELL_ROW_119_507
*816 TAP_TAPCELL_ROW_119_508
*2476 TAP_TAPCELL_ROW_11_2_2168
*2477 TAP_TAPCELL_ROW_11_2_2169
*2478 TAP_TAPCELL_ROW_11_2_2170
*2479 TAP_TAPCELL_ROW_11_2_2171
*2480 TAP_TAPCELL_ROW_11_2_2172
*2481 TAP_TAPCELL_ROW_11_2_2173
*2482 TAP_TAPCELL_ROW_11_2_2174
*2483 TAP_TAPCELL_ROW_11_2_2175
*2484 TAP_TAPCELL_ROW_11_2_2176
*817 TAP_TAPCELL_ROW_120_509
*818 TAP_TAPCELL_ROW_120_510
*819 TAP_TAPCELL_ROW_120_511
*820 TAP_TAPCELL_ROW_120_512
*821 TAP_TAPCELL_ROW_120_513
*822 TAP_TAPCELL_ROW_120_514
*823 TAP_TAPCELL_ROW_120_515
*824 TAP_TAPCELL_ROW_120_516
*825 TAP_TAPCELL_ROW_120_517
*826 TAP_TAPCELL_ROW_120_518
*827 TAP_TAPCELL_ROW_120_519
*828 TAP_TAPCELL_ROW_120_520
*829 TAP_TAPCELL_ROW_120_521
*830 TAP_TAPCELL_ROW_120_522
*831 TAP_TAPCELL_ROW_120_523
*832 TAP_TAPCELL_ROW_120_524
*833 TAP_TAPCELL_ROW_120_525
*834 TAP_TAPCELL_ROW_120_526
*835 TAP_TAPCELL_ROW_120_527
*836 TAP_TAPCELL_ROW_120_528
*837 TAP_TAPCELL_ROW_120_529
*838 TAP_TAPCELL_ROW_120_530
*839 TAP_TAPCELL_ROW_120_531
*840 TAP_TAPCELL_ROW_120_532
*841 TAP_TAPCELL_ROW_120_533
*842 TAP_TAPCELL_ROW_120_534
*843 TAP_TAPCELL_ROW_120_535
*844 TAP_TAPCELL_ROW_120_536
*845 TAP_TAPCELL_ROW_120_537
*846 TAP_TAPCELL_ROW_120_538
*847 TAP_TAPCELL_ROW_120_539
*848 TAP_TAPCELL_ROW_120_540
*849 TAP_TAPCELL_ROW_120_541
*850 TAP_TAPCELL_ROW_120_542
*851 TAP_TAPCELL_ROW_120_543
*852 TAP_TAPCELL_ROW_121_544
*853 TAP_TAPCELL_ROW_121_545
*854 TAP_TAPCELL_ROW_121_546
*855 TAP_TAPCELL_ROW_121_547
*856 TAP_TAPCELL_ROW_121_548
*857 TAP_TAPCELL_ROW_121_549
*858 TAP_TAPCELL_ROW_121_550
*859 TAP_TAPCELL_ROW_121_551
*860 TAP_TAPCELL_ROW_121_552
*861 TAP_TAPCELL_ROW_121_553
*862 TAP_TAPCELL_ROW_121_554
*863 TAP_TAPCELL_ROW_121_555
*864 TAP_TAPCELL_ROW_121_556
*865 TAP_TAPCELL_ROW_121_557
*866 TAP_TAPCELL_ROW_121_558
*867 TAP_TAPCELL_ROW_121_559
*868 TAP_TAPCELL_ROW_121_560
*869 TAP_TAPCELL_ROW_121_561
*870 TAP_TAPCELL_ROW_121_562
*871 TAP_TAPCELL_ROW_121_563
*872 TAP_TAPCELL_ROW_121_564
*873 TAP_TAPCELL_ROW_121_565
*874 TAP_TAPCELL_ROW_121_566
*875 TAP_TAPCELL_ROW_121_567
*876 TAP_TAPCELL_ROW_121_568
*877 TAP_TAPCELL_ROW_121_569
*878 TAP_TAPCELL_ROW_121_570
*879 TAP_TAPCELL_ROW_121_571
*880 TAP_TAPCELL_ROW_121_572
*881 TAP_TAPCELL_ROW_121_573
*882 TAP_TAPCELL_ROW_121_574
*883 TAP_TAPCELL_ROW_121_575
*884 TAP_TAPCELL_ROW_121_576
*885 TAP_TAPCELL_ROW_121_577
*886 TAP_TAPCELL_ROW_121_578
*887 TAP_TAPCELL_ROW_122_579
*888 TAP_TAPCELL_ROW_122_580
*889 TAP_TAPCELL_ROW_122_581
*890 TAP_TAPCELL_ROW_122_582
*891 TAP_TAPCELL_ROW_122_583
*892 TAP_TAPCELL_ROW_122_584
*893 TAP_TAPCELL_ROW_122_585
*894 TAP_TAPCELL_ROW_122_586
*895 TAP_TAPCELL_ROW_122_587
*896 TAP_TAPCELL_ROW_122_588
*897 TAP_TAPCELL_ROW_122_589
*898 TAP_TAPCELL_ROW_122_590
*899 TAP_TAPCELL_ROW_122_591
*900 TAP_TAPCELL_ROW_122_592
*901 TAP_TAPCELL_ROW_122_593
*902 TAP_TAPCELL_ROW_122_594
*903 TAP_TAPCELL_ROW_122_595
*904 TAP_TAPCELL_ROW_122_596
*905 TAP_TAPCELL_ROW_122_597
*906 TAP_TAPCELL_ROW_122_598
*907 TAP_TAPCELL_ROW_122_599
*908 TAP_TAPCELL_ROW_122_600
*909 TAP_TAPCELL_ROW_122_601
*910 TAP_TAPCELL_ROW_122_602
*911 TAP_TAPCELL_ROW_122_603
*912 TAP_TAPCELL_ROW_122_604
*913 TAP_TAPCELL_ROW_122_605
*914 TAP_TAPCELL_ROW_122_606
*915 TAP_TAPCELL_ROW_122_607
*916 TAP_TAPCELL_ROW_122_608
*917 TAP_TAPCELL_ROW_122_609
*918 TAP_TAPCELL_ROW_122_610
*919 TAP_TAPCELL_ROW_122_611
*920 TAP_TAPCELL_ROW_122_612
*921 TAP_TAPCELL_ROW_122_613
*922 TAP_TAPCELL_ROW_123_614
*923 TAP_TAPCELL_ROW_123_615
*924 TAP_TAPCELL_ROW_123_616
*925 TAP_TAPCELL_ROW_123_617
*926 TAP_TAPCELL_ROW_123_618
*927 TAP_TAPCELL_ROW_123_619
*928 TAP_TAPCELL_ROW_123_620
*929 TAP_TAPCELL_ROW_123_621
*930 TAP_TAPCELL_ROW_123_622
*931 TAP_TAPCELL_ROW_123_623
*932 TAP_TAPCELL_ROW_123_624
*933 TAP_TAPCELL_ROW_123_625
*934 TAP_TAPCELL_ROW_123_626
*935 TAP_TAPCELL_ROW_123_627
*936 TAP_TAPCELL_ROW_123_628
*937 TAP_TAPCELL_ROW_123_629
*938 TAP_TAPCELL_ROW_123_630
*939 TAP_TAPCELL_ROW_123_631
*940 TAP_TAPCELL_ROW_123_632
*941 TAP_TAPCELL_ROW_123_633
*942 TAP_TAPCELL_ROW_123_634
*943 TAP_TAPCELL_ROW_123_635
*944 TAP_TAPCELL_ROW_123_636
*945 TAP_TAPCELL_ROW_123_637
*946 TAP_TAPCELL_ROW_123_638
*947 TAP_TAPCELL_ROW_123_639
*948 TAP_TAPCELL_ROW_123_640
*949 TAP_TAPCELL_ROW_123_641
*950 TAP_TAPCELL_ROW_123_642
*951 TAP_TAPCELL_ROW_123_643
*952 TAP_TAPCELL_ROW_123_644
*953 TAP_TAPCELL_ROW_123_645
*954 TAP_TAPCELL_ROW_123_646
*955 TAP_TAPCELL_ROW_123_647
*956 TAP_TAPCELL_ROW_123_648
*957 TAP_TAPCELL_ROW_124_649
*958 TAP_TAPCELL_ROW_124_650
*959 TAP_TAPCELL_ROW_124_651
*960 TAP_TAPCELL_ROW_124_652
*961 TAP_TAPCELL_ROW_124_653
*962 TAP_TAPCELL_ROW_124_654
*963 TAP_TAPCELL_ROW_124_655
*964 TAP_TAPCELL_ROW_124_656
*965 TAP_TAPCELL_ROW_124_657
*966 TAP_TAPCELL_ROW_124_658
*967 TAP_TAPCELL_ROW_124_659
*968 TAP_TAPCELL_ROW_124_660
*969 TAP_TAPCELL_ROW_124_661
*970 TAP_TAPCELL_ROW_124_662
*971 TAP_TAPCELL_ROW_124_663
*972 TAP_TAPCELL_ROW_124_664
*973 TAP_TAPCELL_ROW_124_665
*974 TAP_TAPCELL_ROW_124_666
*975 TAP_TAPCELL_ROW_124_667
*976 TAP_TAPCELL_ROW_124_668
*977 TAP_TAPCELL_ROW_124_669
*978 TAP_TAPCELL_ROW_124_670
*979 TAP_TAPCELL_ROW_124_671
*980 TAP_TAPCELL_ROW_124_672
*981 TAP_TAPCELL_ROW_124_673
*982 TAP_TAPCELL_ROW_124_674
*983 TAP_TAPCELL_ROW_124_675
*984 TAP_TAPCELL_ROW_124_676
*985 TAP_TAPCELL_ROW_124_677
*986 TAP_TAPCELL_ROW_124_678
*987 TAP_TAPCELL_ROW_124_679
*988 TAP_TAPCELL_ROW_124_680
*989 TAP_TAPCELL_ROW_124_681
*990 TAP_TAPCELL_ROW_124_682
*991 TAP_TAPCELL_ROW_124_683
*992 TAP_TAPCELL_ROW_125_684
*993 TAP_TAPCELL_ROW_125_685
*994 TAP_TAPCELL_ROW_125_686
*995 TAP_TAPCELL_ROW_125_687
*996 TAP_TAPCELL_ROW_125_688
*997 TAP_TAPCELL_ROW_125_689
*998 TAP_TAPCELL_ROW_125_690
*999 TAP_TAPCELL_ROW_125_691
*1000 TAP_TAPCELL_ROW_125_692
*1001 TAP_TAPCELL_ROW_125_693
*1002 TAP_TAPCELL_ROW_125_694
*1003 TAP_TAPCELL_ROW_125_695
*1004 TAP_TAPCELL_ROW_125_696
*1005 TAP_TAPCELL_ROW_125_697
*1006 TAP_TAPCELL_ROW_125_698
*1007 TAP_TAPCELL_ROW_125_699
*1008 TAP_TAPCELL_ROW_125_700
*1009 TAP_TAPCELL_ROW_125_701
*1010 TAP_TAPCELL_ROW_125_702
*1011 TAP_TAPCELL_ROW_125_703
*1012 TAP_TAPCELL_ROW_125_704
*1013 TAP_TAPCELL_ROW_125_705
*1014 TAP_TAPCELL_ROW_125_706
*1015 TAP_TAPCELL_ROW_125_707
*1016 TAP_TAPCELL_ROW_125_708
*1017 TAP_TAPCELL_ROW_125_709
*1018 TAP_TAPCELL_ROW_125_710
*1019 TAP_TAPCELL_ROW_125_711
*1020 TAP_TAPCELL_ROW_125_712
*1021 TAP_TAPCELL_ROW_125_713
*1022 TAP_TAPCELL_ROW_125_714
*1023 TAP_TAPCELL_ROW_125_715
*1024 TAP_TAPCELL_ROW_125_716
*1025 TAP_TAPCELL_ROW_125_717
*1026 TAP_TAPCELL_ROW_125_718
*1027 TAP_TAPCELL_ROW_126_719
*1028 TAP_TAPCELL_ROW_126_720
*1029 TAP_TAPCELL_ROW_126_721
*1030 TAP_TAPCELL_ROW_126_722
*1031 TAP_TAPCELL_ROW_126_723
*1032 TAP_TAPCELL_ROW_126_724
*1033 TAP_TAPCELL_ROW_126_725
*1034 TAP_TAPCELL_ROW_126_726
*1035 TAP_TAPCELL_ROW_126_727
*1036 TAP_TAPCELL_ROW_126_728
*1037 TAP_TAPCELL_ROW_126_729
*1038 TAP_TAPCELL_ROW_126_730
*1039 TAP_TAPCELL_ROW_126_731
*1040 TAP_TAPCELL_ROW_126_732
*1041 TAP_TAPCELL_ROW_126_733
*1042 TAP_TAPCELL_ROW_126_734
*1043 TAP_TAPCELL_ROW_126_735
*1044 TAP_TAPCELL_ROW_126_736
*1045 TAP_TAPCELL_ROW_126_737
*1046 TAP_TAPCELL_ROW_126_738
*1047 TAP_TAPCELL_ROW_126_739
*1048 TAP_TAPCELL_ROW_126_740
*1049 TAP_TAPCELL_ROW_126_741
*1050 TAP_TAPCELL_ROW_126_742
*1051 TAP_TAPCELL_ROW_126_743
*1052 TAP_TAPCELL_ROW_126_744
*1053 TAP_TAPCELL_ROW_126_745
*1054 TAP_TAPCELL_ROW_126_746
*1055 TAP_TAPCELL_ROW_126_747
*1056 TAP_TAPCELL_ROW_126_748
*1057 TAP_TAPCELL_ROW_126_749
*1058 TAP_TAPCELL_ROW_126_750
*1059 TAP_TAPCELL_ROW_126_751
*1060 TAP_TAPCELL_ROW_126_752
*1061 TAP_TAPCELL_ROW_126_753
*1062 TAP_TAPCELL_ROW_127_754
*1063 TAP_TAPCELL_ROW_127_755
*1064 TAP_TAPCELL_ROW_127_756
*1065 TAP_TAPCELL_ROW_127_757
*1066 TAP_TAPCELL_ROW_127_758
*1067 TAP_TAPCELL_ROW_127_759
*1068 TAP_TAPCELL_ROW_127_760
*1069 TAP_TAPCELL_ROW_127_761
*1070 TAP_TAPCELL_ROW_127_762
*1071 TAP_TAPCELL_ROW_127_763
*1072 TAP_TAPCELL_ROW_127_764
*1073 TAP_TAPCELL_ROW_127_765
*1074 TAP_TAPCELL_ROW_127_766
*1075 TAP_TAPCELL_ROW_127_767
*1076 TAP_TAPCELL_ROW_127_768
*1077 TAP_TAPCELL_ROW_127_769
*1078 TAP_TAPCELL_ROW_127_770
*1079 TAP_TAPCELL_ROW_127_771
*1080 TAP_TAPCELL_ROW_127_772
*1081 TAP_TAPCELL_ROW_127_773
*1082 TAP_TAPCELL_ROW_127_774
*1083 TAP_TAPCELL_ROW_127_775
*1084 TAP_TAPCELL_ROW_127_776
*1085 TAP_TAPCELL_ROW_127_777
*1086 TAP_TAPCELL_ROW_127_778
*1087 TAP_TAPCELL_ROW_127_779
*1088 TAP_TAPCELL_ROW_127_780
*1089 TAP_TAPCELL_ROW_127_781
*1090 TAP_TAPCELL_ROW_127_782
*1091 TAP_TAPCELL_ROW_127_783
*1092 TAP_TAPCELL_ROW_127_784
*1093 TAP_TAPCELL_ROW_127_785
*1094 TAP_TAPCELL_ROW_127_786
*1095 TAP_TAPCELL_ROW_127_787
*1096 TAP_TAPCELL_ROW_127_788
*1097 TAP_TAPCELL_ROW_128_789
*1098 TAP_TAPCELL_ROW_128_790
*1099 TAP_TAPCELL_ROW_128_791
*1100 TAP_TAPCELL_ROW_128_792
*1101 TAP_TAPCELL_ROW_128_793
*1102 TAP_TAPCELL_ROW_128_794
*1103 TAP_TAPCELL_ROW_128_795
*1104 TAP_TAPCELL_ROW_128_796
*1105 TAP_TAPCELL_ROW_128_797
*1106 TAP_TAPCELL_ROW_128_798
*1107 TAP_TAPCELL_ROW_128_799
*1108 TAP_TAPCELL_ROW_128_800
*1109 TAP_TAPCELL_ROW_128_801
*1110 TAP_TAPCELL_ROW_128_802
*1111 TAP_TAPCELL_ROW_128_803
*1112 TAP_TAPCELL_ROW_128_804
*1113 TAP_TAPCELL_ROW_128_805
*1114 TAP_TAPCELL_ROW_128_806
*1115 TAP_TAPCELL_ROW_128_807
*1116 TAP_TAPCELL_ROW_128_808
*1117 TAP_TAPCELL_ROW_128_809
*1118 TAP_TAPCELL_ROW_128_810
*1119 TAP_TAPCELL_ROW_128_811
*1120 TAP_TAPCELL_ROW_128_812
*1121 TAP_TAPCELL_ROW_128_813
*1122 TAP_TAPCELL_ROW_128_814
*1123 TAP_TAPCELL_ROW_128_815
*1124 TAP_TAPCELL_ROW_128_816
*1125 TAP_TAPCELL_ROW_128_817
*1126 TAP_TAPCELL_ROW_128_818
*1127 TAP_TAPCELL_ROW_128_819
*1128 TAP_TAPCELL_ROW_128_820
*1129 TAP_TAPCELL_ROW_128_821
*1130 TAP_TAPCELL_ROW_128_822
*1131 TAP_TAPCELL_ROW_128_823
*1132 TAP_TAPCELL_ROW_129_824
*1133 TAP_TAPCELL_ROW_129_825
*1134 TAP_TAPCELL_ROW_129_826
*1135 TAP_TAPCELL_ROW_129_827
*1136 TAP_TAPCELL_ROW_129_828
*1137 TAP_TAPCELL_ROW_129_829
*1138 TAP_TAPCELL_ROW_129_830
*1139 TAP_TAPCELL_ROW_129_831
*1140 TAP_TAPCELL_ROW_129_832
*1141 TAP_TAPCELL_ROW_129_833
*1142 TAP_TAPCELL_ROW_129_834
*1143 TAP_TAPCELL_ROW_129_835
*1144 TAP_TAPCELL_ROW_129_836
*1145 TAP_TAPCELL_ROW_129_837
*1146 TAP_TAPCELL_ROW_129_838
*1147 TAP_TAPCELL_ROW_129_839
*1148 TAP_TAPCELL_ROW_129_840
*1149 TAP_TAPCELL_ROW_129_841
*1150 TAP_TAPCELL_ROW_129_842
*1151 TAP_TAPCELL_ROW_129_843
*1152 TAP_TAPCELL_ROW_129_844
*1153 TAP_TAPCELL_ROW_129_845
*1154 TAP_TAPCELL_ROW_129_846
*1155 TAP_TAPCELL_ROW_129_847
*1156 TAP_TAPCELL_ROW_129_848
*1157 TAP_TAPCELL_ROW_129_849
*1158 TAP_TAPCELL_ROW_129_850
*1159 TAP_TAPCELL_ROW_129_851
*1160 TAP_TAPCELL_ROW_129_852
*1161 TAP_TAPCELL_ROW_129_853
*1162 TAP_TAPCELL_ROW_129_854
*1163 TAP_TAPCELL_ROW_129_855
*1164 TAP_TAPCELL_ROW_129_856
*1165 TAP_TAPCELL_ROW_129_857
*1166 TAP_TAPCELL_ROW_129_858
*590 TAP_TAPCELL_ROW_12_1_282
*2485 TAP_TAPCELL_ROW_12_2_2177
*2486 TAP_TAPCELL_ROW_12_2_2178
*2487 TAP_TAPCELL_ROW_12_2_2179
*2488 TAP_TAPCELL_ROW_12_2_2180
*2489 TAP_TAPCELL_ROW_12_2_2181
*2490 TAP_TAPCELL_ROW_12_2_2182
*2491 TAP_TAPCELL_ROW_12_2_2183
*2492 TAP_TAPCELL_ROW_12_2_2184
*2493 TAP_TAPCELL_ROW_12_2_2185
*2494 TAP_TAPCELL_ROW_12_2_2186
*1167 TAP_TAPCELL_ROW_130_859
*1168 TAP_TAPCELL_ROW_130_860
*1169 TAP_TAPCELL_ROW_130_861
*1170 TAP_TAPCELL_ROW_130_862
*1171 TAP_TAPCELL_ROW_130_863
*1172 TAP_TAPCELL_ROW_130_864
*1173 TAP_TAPCELL_ROW_130_865
*1174 TAP_TAPCELL_ROW_130_866
*1175 TAP_TAPCELL_ROW_130_867
*1176 TAP_TAPCELL_ROW_130_868
*1177 TAP_TAPCELL_ROW_130_869
*1178 TAP_TAPCELL_ROW_130_870
*1179 TAP_TAPCELL_ROW_130_871
*1180 TAP_TAPCELL_ROW_130_872
*1181 TAP_TAPCELL_ROW_130_873
*1182 TAP_TAPCELL_ROW_130_874
*1183 TAP_TAPCELL_ROW_130_875
*1184 TAP_TAPCELL_ROW_130_876
*1185 TAP_TAPCELL_ROW_130_877
*1186 TAP_TAPCELL_ROW_130_878
*1187 TAP_TAPCELL_ROW_130_879
*1188 TAP_TAPCELL_ROW_130_880
*1189 TAP_TAPCELL_ROW_130_881
*1190 TAP_TAPCELL_ROW_130_882
*1191 TAP_TAPCELL_ROW_130_883
*1192 TAP_TAPCELL_ROW_130_884
*1193 TAP_TAPCELL_ROW_130_885
*1194 TAP_TAPCELL_ROW_130_886
*1195 TAP_TAPCELL_ROW_130_887
*1196 TAP_TAPCELL_ROW_130_888
*1197 TAP_TAPCELL_ROW_130_889
*1198 TAP_TAPCELL_ROW_130_890
*1199 TAP_TAPCELL_ROW_130_891
*1200 TAP_TAPCELL_ROW_130_892
*1201 TAP_TAPCELL_ROW_130_893
*1202 TAP_TAPCELL_ROW_131_894
*1203 TAP_TAPCELL_ROW_131_895
*1204 TAP_TAPCELL_ROW_131_896
*1205 TAP_TAPCELL_ROW_131_897
*1206 TAP_TAPCELL_ROW_131_898
*1207 TAP_TAPCELL_ROW_131_899
*1208 TAP_TAPCELL_ROW_131_900
*1209 TAP_TAPCELL_ROW_131_901
*1210 TAP_TAPCELL_ROW_131_902
*1211 TAP_TAPCELL_ROW_131_903
*1212 TAP_TAPCELL_ROW_131_904
*1213 TAP_TAPCELL_ROW_131_905
*1214 TAP_TAPCELL_ROW_131_906
*1215 TAP_TAPCELL_ROW_131_907
*1216 TAP_TAPCELL_ROW_131_908
*1217 TAP_TAPCELL_ROW_131_909
*1218 TAP_TAPCELL_ROW_131_910
*1219 TAP_TAPCELL_ROW_131_911
*1220 TAP_TAPCELL_ROW_131_912
*1221 TAP_TAPCELL_ROW_131_913
*1222 TAP_TAPCELL_ROW_131_914
*1223 TAP_TAPCELL_ROW_131_915
*1224 TAP_TAPCELL_ROW_131_916
*1225 TAP_TAPCELL_ROW_131_917
*1226 TAP_TAPCELL_ROW_131_918
*1227 TAP_TAPCELL_ROW_131_919
*1228 TAP_TAPCELL_ROW_131_920
*1229 TAP_TAPCELL_ROW_131_921
*1230 TAP_TAPCELL_ROW_131_922
*1231 TAP_TAPCELL_ROW_131_923
*1232 TAP_TAPCELL_ROW_131_924
*1233 TAP_TAPCELL_ROW_131_925
*1234 TAP_TAPCELL_ROW_131_926
*1235 TAP_TAPCELL_ROW_131_927
*1236 TAP_TAPCELL_ROW_131_928
*1237 TAP_TAPCELL_ROW_132_929
*1238 TAP_TAPCELL_ROW_132_930
*1239 TAP_TAPCELL_ROW_132_931
*1240 TAP_TAPCELL_ROW_132_932
*1241 TAP_TAPCELL_ROW_132_933
*1242 TAP_TAPCELL_ROW_132_934
*1243 TAP_TAPCELL_ROW_132_935
*1244 TAP_TAPCELL_ROW_132_936
*1245 TAP_TAPCELL_ROW_132_937
*1246 TAP_TAPCELL_ROW_132_938
*1247 TAP_TAPCELL_ROW_132_939
*1248 TAP_TAPCELL_ROW_132_940
*1249 TAP_TAPCELL_ROW_132_941
*1250 TAP_TAPCELL_ROW_132_942
*1251 TAP_TAPCELL_ROW_132_943
*1252 TAP_TAPCELL_ROW_132_944
*1253 TAP_TAPCELL_ROW_132_945
*1254 TAP_TAPCELL_ROW_132_946
*1255 TAP_TAPCELL_ROW_132_947
*1256 TAP_TAPCELL_ROW_132_948
*1257 TAP_TAPCELL_ROW_132_949
*1258 TAP_TAPCELL_ROW_132_950
*1259 TAP_TAPCELL_ROW_132_951
*1260 TAP_TAPCELL_ROW_132_952
*1261 TAP_TAPCELL_ROW_132_953
*1262 TAP_TAPCELL_ROW_132_954
*1263 TAP_TAPCELL_ROW_132_955
*1264 TAP_TAPCELL_ROW_132_956
*1265 TAP_TAPCELL_ROW_132_957
*1266 TAP_TAPCELL_ROW_132_958
*1267 TAP_TAPCELL_ROW_132_959
*1268 TAP_TAPCELL_ROW_132_960
*1269 TAP_TAPCELL_ROW_132_961
*1270 TAP_TAPCELL_ROW_132_962
*1271 TAP_TAPCELL_ROW_132_963
*1272 TAP_TAPCELL_ROW_133_964
*1273 TAP_TAPCELL_ROW_133_965
*1274 TAP_TAPCELL_ROW_133_966
*1275 TAP_TAPCELL_ROW_133_967
*1276 TAP_TAPCELL_ROW_133_968
*1277 TAP_TAPCELL_ROW_133_969
*1278 TAP_TAPCELL_ROW_133_970
*1279 TAP_TAPCELL_ROW_133_971
*1280 TAP_TAPCELL_ROW_133_972
*1281 TAP_TAPCELL_ROW_133_973
*1282 TAP_TAPCELL_ROW_133_974
*1283 TAP_TAPCELL_ROW_133_975
*1284 TAP_TAPCELL_ROW_133_976
*1285 TAP_TAPCELL_ROW_133_977
*1286 TAP_TAPCELL_ROW_133_978
*1287 TAP_TAPCELL_ROW_133_979
*1288 TAP_TAPCELL_ROW_133_980
*1289 TAP_TAPCELL_ROW_133_981
*1290 TAP_TAPCELL_ROW_133_982
*1291 TAP_TAPCELL_ROW_133_983
*1292 TAP_TAPCELL_ROW_133_984
*1293 TAP_TAPCELL_ROW_133_985
*1294 TAP_TAPCELL_ROW_133_986
*1295 TAP_TAPCELL_ROW_133_987
*1296 TAP_TAPCELL_ROW_133_988
*1297 TAP_TAPCELL_ROW_133_989
*1298 TAP_TAPCELL_ROW_133_990
*1299 TAP_TAPCELL_ROW_133_991
*1300 TAP_TAPCELL_ROW_133_992
*1301 TAP_TAPCELL_ROW_133_993
*1302 TAP_TAPCELL_ROW_133_994
*1303 TAP_TAPCELL_ROW_133_995
*1304 TAP_TAPCELL_ROW_133_996
*1305 TAP_TAPCELL_ROW_133_997
*1306 TAP_TAPCELL_ROW_133_998
*1308 TAP_TAPCELL_ROW_134_1000
*1309 TAP_TAPCELL_ROW_134_1001
*1310 TAP_TAPCELL_ROW_134_1002
*1311 TAP_TAPCELL_ROW_134_1003
*1312 TAP_TAPCELL_ROW_134_1004
*1313 TAP_TAPCELL_ROW_134_1005
*1314 TAP_TAPCELL_ROW_134_1006
*1315 TAP_TAPCELL_ROW_134_1007
*1316 TAP_TAPCELL_ROW_134_1008
*1317 TAP_TAPCELL_ROW_134_1009
*1318 TAP_TAPCELL_ROW_134_1010
*1319 TAP_TAPCELL_ROW_134_1011
*1320 TAP_TAPCELL_ROW_134_1012
*1321 TAP_TAPCELL_ROW_134_1013
*1322 TAP_TAPCELL_ROW_134_1014
*1323 TAP_TAPCELL_ROW_134_1015
*1324 TAP_TAPCELL_ROW_134_1016
*1325 TAP_TAPCELL_ROW_134_1017
*1326 TAP_TAPCELL_ROW_134_1018
*1327 TAP_TAPCELL_ROW_134_1019
*1328 TAP_TAPCELL_ROW_134_1020
*1329 TAP_TAPCELL_ROW_134_1021
*1330 TAP_TAPCELL_ROW_134_1022
*1331 TAP_TAPCELL_ROW_134_1023
*1332 TAP_TAPCELL_ROW_134_1024
*1333 TAP_TAPCELL_ROW_134_1025
*1334 TAP_TAPCELL_ROW_134_1026
*1335 TAP_TAPCELL_ROW_134_1027
*1336 TAP_TAPCELL_ROW_134_1028
*1337 TAP_TAPCELL_ROW_134_1029
*1338 TAP_TAPCELL_ROW_134_1030
*1339 TAP_TAPCELL_ROW_134_1031
*1340 TAP_TAPCELL_ROW_134_1032
*1341 TAP_TAPCELL_ROW_134_1033
*1307 TAP_TAPCELL_ROW_134_999
*1342 TAP_TAPCELL_ROW_135_1034
*1343 TAP_TAPCELL_ROW_135_1035
*1344 TAP_TAPCELL_ROW_135_1036
*1345 TAP_TAPCELL_ROW_135_1037
*1346 TAP_TAPCELL_ROW_135_1038
*1347 TAP_TAPCELL_ROW_135_1039
*1348 TAP_TAPCELL_ROW_135_1040
*1349 TAP_TAPCELL_ROW_135_1041
*1350 TAP_TAPCELL_ROW_135_1042
*1351 TAP_TAPCELL_ROW_135_1043
*1352 TAP_TAPCELL_ROW_135_1044
*1353 TAP_TAPCELL_ROW_135_1045
*1354 TAP_TAPCELL_ROW_135_1046
*1355 TAP_TAPCELL_ROW_135_1047
*1356 TAP_TAPCELL_ROW_135_1048
*1357 TAP_TAPCELL_ROW_135_1049
*1358 TAP_TAPCELL_ROW_135_1050
*1359 TAP_TAPCELL_ROW_135_1051
*1360 TAP_TAPCELL_ROW_135_1052
*1361 TAP_TAPCELL_ROW_135_1053
*1362 TAP_TAPCELL_ROW_135_1054
*1363 TAP_TAPCELL_ROW_135_1055
*1364 TAP_TAPCELL_ROW_135_1056
*1365 TAP_TAPCELL_ROW_135_1057
*1366 TAP_TAPCELL_ROW_135_1058
*1367 TAP_TAPCELL_ROW_135_1059
*1368 TAP_TAPCELL_ROW_135_1060
*1369 TAP_TAPCELL_ROW_135_1061
*1370 TAP_TAPCELL_ROW_135_1062
*1371 TAP_TAPCELL_ROW_135_1063
*1372 TAP_TAPCELL_ROW_135_1064
*1373 TAP_TAPCELL_ROW_135_1065
*1374 TAP_TAPCELL_ROW_135_1066
*1375 TAP_TAPCELL_ROW_135_1067
*1376 TAP_TAPCELL_ROW_135_1068
*1377 TAP_TAPCELL_ROW_136_1069
*1378 TAP_TAPCELL_ROW_136_1070
*1379 TAP_TAPCELL_ROW_136_1071
*1380 TAP_TAPCELL_ROW_136_1072
*1381 TAP_TAPCELL_ROW_136_1073
*1382 TAP_TAPCELL_ROW_136_1074
*1383 TAP_TAPCELL_ROW_136_1075
*1384 TAP_TAPCELL_ROW_136_1076
*1385 TAP_TAPCELL_ROW_136_1077
*1386 TAP_TAPCELL_ROW_136_1078
*1387 TAP_TAPCELL_ROW_136_1079
*1388 TAP_TAPCELL_ROW_136_1080
*1389 TAP_TAPCELL_ROW_136_1081
*1390 TAP_TAPCELL_ROW_136_1082
*1391 TAP_TAPCELL_ROW_136_1083
*1392 TAP_TAPCELL_ROW_136_1084
*1393 TAP_TAPCELL_ROW_136_1085
*1394 TAP_TAPCELL_ROW_136_1086
*1395 TAP_TAPCELL_ROW_136_1087
*1396 TAP_TAPCELL_ROW_136_1088
*1397 TAP_TAPCELL_ROW_136_1089
*1398 TAP_TAPCELL_ROW_136_1090
*1399 TAP_TAPCELL_ROW_136_1091
*1400 TAP_TAPCELL_ROW_136_1092
*1401 TAP_TAPCELL_ROW_136_1093
*1402 TAP_TAPCELL_ROW_136_1094
*1403 TAP_TAPCELL_ROW_136_1095
*1404 TAP_TAPCELL_ROW_136_1096
*1405 TAP_TAPCELL_ROW_136_1097
*1406 TAP_TAPCELL_ROW_136_1098
*1407 TAP_TAPCELL_ROW_136_1099
*1408 TAP_TAPCELL_ROW_136_1100
*1409 TAP_TAPCELL_ROW_136_1101
*1410 TAP_TAPCELL_ROW_136_1102
*1411 TAP_TAPCELL_ROW_136_1103
*1412 TAP_TAPCELL_ROW_137_1104
*1413 TAP_TAPCELL_ROW_137_1105
*1414 TAP_TAPCELL_ROW_137_1106
*1415 TAP_TAPCELL_ROW_137_1107
*1416 TAP_TAPCELL_ROW_137_1108
*1417 TAP_TAPCELL_ROW_137_1109
*1418 TAP_TAPCELL_ROW_137_1110
*1419 TAP_TAPCELL_ROW_137_1111
*1420 TAP_TAPCELL_ROW_137_1112
*1421 TAP_TAPCELL_ROW_137_1113
*1422 TAP_TAPCELL_ROW_137_1114
*1423 TAP_TAPCELL_ROW_137_1115
*1424 TAP_TAPCELL_ROW_137_1116
*1425 TAP_TAPCELL_ROW_137_1117
*1426 TAP_TAPCELL_ROW_137_1118
*1427 TAP_TAPCELL_ROW_137_1119
*1428 TAP_TAPCELL_ROW_137_1120
*1429 TAP_TAPCELL_ROW_137_1121
*1430 TAP_TAPCELL_ROW_137_1122
*1431 TAP_TAPCELL_ROW_137_1123
*1432 TAP_TAPCELL_ROW_137_1124
*1433 TAP_TAPCELL_ROW_137_1125
*1434 TAP_TAPCELL_ROW_137_1126
*1435 TAP_TAPCELL_ROW_137_1127
*1436 TAP_TAPCELL_ROW_137_1128
*1437 TAP_TAPCELL_ROW_137_1129
*1438 TAP_TAPCELL_ROW_137_1130
*1439 TAP_TAPCELL_ROW_137_1131
*1440 TAP_TAPCELL_ROW_137_1132
*1441 TAP_TAPCELL_ROW_137_1133
*1442 TAP_TAPCELL_ROW_137_1134
*1443 TAP_TAPCELL_ROW_137_1135
*1444 TAP_TAPCELL_ROW_137_1136
*1445 TAP_TAPCELL_ROW_137_1137
*1446 TAP_TAPCELL_ROW_137_1138
*1447 TAP_TAPCELL_ROW_138_1139
*1448 TAP_TAPCELL_ROW_138_1140
*1449 TAP_TAPCELL_ROW_138_1141
*1450 TAP_TAPCELL_ROW_138_1142
*1451 TAP_TAPCELL_ROW_138_1143
*1452 TAP_TAPCELL_ROW_138_1144
*1453 TAP_TAPCELL_ROW_138_1145
*1454 TAP_TAPCELL_ROW_138_1146
*1455 TAP_TAPCELL_ROW_138_1147
*1456 TAP_TAPCELL_ROW_138_1148
*1457 TAP_TAPCELL_ROW_138_1149
*1458 TAP_TAPCELL_ROW_138_1150
*1459 TAP_TAPCELL_ROW_138_1151
*1460 TAP_TAPCELL_ROW_138_1152
*1461 TAP_TAPCELL_ROW_138_1153
*1462 TAP_TAPCELL_ROW_138_1154
*1463 TAP_TAPCELL_ROW_138_1155
*1464 TAP_TAPCELL_ROW_138_1156
*1465 TAP_TAPCELL_ROW_138_1157
*1466 TAP_TAPCELL_ROW_138_1158
*1467 TAP_TAPCELL_ROW_138_1159
*1468 TAP_TAPCELL_ROW_138_1160
*1469 TAP_TAPCELL_ROW_138_1161
*1470 TAP_TAPCELL_ROW_138_1162
*1471 TAP_TAPCELL_ROW_138_1163
*1472 TAP_TAPCELL_ROW_138_1164
*1473 TAP_TAPCELL_ROW_138_1165
*1474 TAP_TAPCELL_ROW_138_1166
*1475 TAP_TAPCELL_ROW_138_1167
*1476 TAP_TAPCELL_ROW_138_1168
*1477 TAP_TAPCELL_ROW_138_1169
*1478 TAP_TAPCELL_ROW_138_1170
*1479 TAP_TAPCELL_ROW_138_1171
*1480 TAP_TAPCELL_ROW_138_1172
*1481 TAP_TAPCELL_ROW_138_1173
*1482 TAP_TAPCELL_ROW_139_1174
*1483 TAP_TAPCELL_ROW_139_1175
*1484 TAP_TAPCELL_ROW_139_1176
*1485 TAP_TAPCELL_ROW_139_1177
*1486 TAP_TAPCELL_ROW_139_1178
*1487 TAP_TAPCELL_ROW_139_1179
*1488 TAP_TAPCELL_ROW_139_1180
*1489 TAP_TAPCELL_ROW_139_1181
*1490 TAP_TAPCELL_ROW_139_1182
*1491 TAP_TAPCELL_ROW_139_1183
*1492 TAP_TAPCELL_ROW_139_1184
*1493 TAP_TAPCELL_ROW_139_1185
*1494 TAP_TAPCELL_ROW_139_1186
*1495 TAP_TAPCELL_ROW_139_1187
*1496 TAP_TAPCELL_ROW_139_1188
*1497 TAP_TAPCELL_ROW_139_1189
*1498 TAP_TAPCELL_ROW_139_1190
*1499 TAP_TAPCELL_ROW_139_1191
*1500 TAP_TAPCELL_ROW_139_1192
*1501 TAP_TAPCELL_ROW_139_1193
*1502 TAP_TAPCELL_ROW_139_1194
*1503 TAP_TAPCELL_ROW_139_1195
*1504 TAP_TAPCELL_ROW_139_1196
*1505 TAP_TAPCELL_ROW_139_1197
*1506 TAP_TAPCELL_ROW_139_1198
*1507 TAP_TAPCELL_ROW_139_1199
*1508 TAP_TAPCELL_ROW_139_1200
*1509 TAP_TAPCELL_ROW_139_1201
*1510 TAP_TAPCELL_ROW_139_1202
*1511 TAP_TAPCELL_ROW_139_1203
*1512 TAP_TAPCELL_ROW_139_1204
*1513 TAP_TAPCELL_ROW_139_1205
*1514 TAP_TAPCELL_ROW_139_1206
*1515 TAP_TAPCELL_ROW_139_1207
*1516 TAP_TAPCELL_ROW_139_1208
*2495 TAP_TAPCELL_ROW_13_2_2187
*2496 TAP_TAPCELL_ROW_13_2_2188
*2497 TAP_TAPCELL_ROW_13_2_2189
*2498 TAP_TAPCELL_ROW_13_2_2190
*2499 TAP_TAPCELL_ROW_13_2_2191
*2500 TAP_TAPCELL_ROW_13_2_2192
*2501 TAP_TAPCELL_ROW_13_2_2193
*2502 TAP_TAPCELL_ROW_13_2_2194
*2503 TAP_TAPCELL_ROW_13_2_2195
*1517 TAP_TAPCELL_ROW_140_1209
*1518 TAP_TAPCELL_ROW_140_1210
*1519 TAP_TAPCELL_ROW_140_1211
*1520 TAP_TAPCELL_ROW_140_1212
*1521 TAP_TAPCELL_ROW_140_1213
*1522 TAP_TAPCELL_ROW_140_1214
*1523 TAP_TAPCELL_ROW_140_1215
*1524 TAP_TAPCELL_ROW_140_1216
*1525 TAP_TAPCELL_ROW_140_1217
*1526 TAP_TAPCELL_ROW_140_1218
*1527 TAP_TAPCELL_ROW_140_1219
*1528 TAP_TAPCELL_ROW_140_1220
*1529 TAP_TAPCELL_ROW_140_1221
*1530 TAP_TAPCELL_ROW_140_1222
*1531 TAP_TAPCELL_ROW_140_1223
*1532 TAP_TAPCELL_ROW_140_1224
*1533 TAP_TAPCELL_ROW_140_1225
*1534 TAP_TAPCELL_ROW_140_1226
*1535 TAP_TAPCELL_ROW_140_1227
*1536 TAP_TAPCELL_ROW_140_1228
*1537 TAP_TAPCELL_ROW_140_1229
*1538 TAP_TAPCELL_ROW_140_1230
*1539 TAP_TAPCELL_ROW_140_1231
*1540 TAP_TAPCELL_ROW_140_1232
*1541 TAP_TAPCELL_ROW_140_1233
*1542 TAP_TAPCELL_ROW_140_1234
*1543 TAP_TAPCELL_ROW_140_1235
*1544 TAP_TAPCELL_ROW_140_1236
*1545 TAP_TAPCELL_ROW_140_1237
*1546 TAP_TAPCELL_ROW_140_1238
*1547 TAP_TAPCELL_ROW_140_1239
*1548 TAP_TAPCELL_ROW_140_1240
*1549 TAP_TAPCELL_ROW_140_1241
*1550 TAP_TAPCELL_ROW_140_1242
*1551 TAP_TAPCELL_ROW_140_1243
*1552 TAP_TAPCELL_ROW_141_1244
*1553 TAP_TAPCELL_ROW_141_1245
*1554 TAP_TAPCELL_ROW_141_1246
*1555 TAP_TAPCELL_ROW_141_1247
*1556 TAP_TAPCELL_ROW_141_1248
*1557 TAP_TAPCELL_ROW_141_1249
*1558 TAP_TAPCELL_ROW_141_1250
*1559 TAP_TAPCELL_ROW_141_1251
*1560 TAP_TAPCELL_ROW_141_1252
*1561 TAP_TAPCELL_ROW_141_1253
*1562 TAP_TAPCELL_ROW_141_1254
*1563 TAP_TAPCELL_ROW_141_1255
*1564 TAP_TAPCELL_ROW_141_1256
*1565 TAP_TAPCELL_ROW_141_1257
*1566 TAP_TAPCELL_ROW_141_1258
*1567 TAP_TAPCELL_ROW_141_1259
*1568 TAP_TAPCELL_ROW_141_1260
*1569 TAP_TAPCELL_ROW_141_1261
*1570 TAP_TAPCELL_ROW_141_1262
*1571 TAP_TAPCELL_ROW_141_1263
*1572 TAP_TAPCELL_ROW_141_1264
*1573 TAP_TAPCELL_ROW_141_1265
*1574 TAP_TAPCELL_ROW_141_1266
*1575 TAP_TAPCELL_ROW_141_1267
*1576 TAP_TAPCELL_ROW_141_1268
*1577 TAP_TAPCELL_ROW_141_1269
*1578 TAP_TAPCELL_ROW_141_1270
*1579 TAP_TAPCELL_ROW_141_1271
*1580 TAP_TAPCELL_ROW_141_1272
*1581 TAP_TAPCELL_ROW_141_1273
*1582 TAP_TAPCELL_ROW_141_1274
*1583 TAP_TAPCELL_ROW_141_1275
*1584 TAP_TAPCELL_ROW_141_1276
*1585 TAP_TAPCELL_ROW_141_1277
*1586 TAP_TAPCELL_ROW_141_1278
*1587 TAP_TAPCELL_ROW_142_1279
*1588 TAP_TAPCELL_ROW_142_1280
*1589 TAP_TAPCELL_ROW_142_1281
*1590 TAP_TAPCELL_ROW_142_1282
*1591 TAP_TAPCELL_ROW_142_1283
*1592 TAP_TAPCELL_ROW_142_1284
*1593 TAP_TAPCELL_ROW_142_1285
*1594 TAP_TAPCELL_ROW_142_1286
*1595 TAP_TAPCELL_ROW_142_1287
*1596 TAP_TAPCELL_ROW_142_1288
*1597 TAP_TAPCELL_ROW_142_1289
*1598 TAP_TAPCELL_ROW_142_1290
*1599 TAP_TAPCELL_ROW_142_1291
*1600 TAP_TAPCELL_ROW_142_1292
*1601 TAP_TAPCELL_ROW_142_1293
*1602 TAP_TAPCELL_ROW_142_1294
*1603 TAP_TAPCELL_ROW_142_1295
*1604 TAP_TAPCELL_ROW_142_1296
*1605 TAP_TAPCELL_ROW_142_1297
*1606 TAP_TAPCELL_ROW_142_1298
*1607 TAP_TAPCELL_ROW_142_1299
*1608 TAP_TAPCELL_ROW_142_1300
*1609 TAP_TAPCELL_ROW_142_1301
*1610 TAP_TAPCELL_ROW_142_1302
*1611 TAP_TAPCELL_ROW_142_1303
*1612 TAP_TAPCELL_ROW_142_1304
*1613 TAP_TAPCELL_ROW_142_1305
*1614 TAP_TAPCELL_ROW_142_1306
*1615 TAP_TAPCELL_ROW_142_1307
*1616 TAP_TAPCELL_ROW_142_1308
*1617 TAP_TAPCELL_ROW_142_1309
*1618 TAP_TAPCELL_ROW_142_1310
*1619 TAP_TAPCELL_ROW_142_1311
*1620 TAP_TAPCELL_ROW_142_1312
*1621 TAP_TAPCELL_ROW_142_1313
*1622 TAP_TAPCELL_ROW_143_1314
*1623 TAP_TAPCELL_ROW_143_1315
*1624 TAP_TAPCELL_ROW_143_1316
*1625 TAP_TAPCELL_ROW_143_1317
*1626 TAP_TAPCELL_ROW_143_1318
*1627 TAP_TAPCELL_ROW_143_1319
*1628 TAP_TAPCELL_ROW_143_1320
*1629 TAP_TAPCELL_ROW_143_1321
*1630 TAP_TAPCELL_ROW_143_1322
*1631 TAP_TAPCELL_ROW_143_1323
*1632 TAP_TAPCELL_ROW_143_1324
*1633 TAP_TAPCELL_ROW_143_1325
*1634 TAP_TAPCELL_ROW_143_1326
*1635 TAP_TAPCELL_ROW_143_1327
*1636 TAP_TAPCELL_ROW_143_1328
*1637 TAP_TAPCELL_ROW_143_1329
*1638 TAP_TAPCELL_ROW_143_1330
*1639 TAP_TAPCELL_ROW_143_1331
*1640 TAP_TAPCELL_ROW_143_1332
*1641 TAP_TAPCELL_ROW_143_1333
*1642 TAP_TAPCELL_ROW_143_1334
*1643 TAP_TAPCELL_ROW_143_1335
*1644 TAP_TAPCELL_ROW_143_1336
*1645 TAP_TAPCELL_ROW_143_1337
*1646 TAP_TAPCELL_ROW_143_1338
*1647 TAP_TAPCELL_ROW_143_1339
*1648 TAP_TAPCELL_ROW_143_1340
*1649 TAP_TAPCELL_ROW_143_1341
*1650 TAP_TAPCELL_ROW_143_1342
*1651 TAP_TAPCELL_ROW_143_1343
*1652 TAP_TAPCELL_ROW_143_1344
*1653 TAP_TAPCELL_ROW_143_1345
*1654 TAP_TAPCELL_ROW_143_1346
*1655 TAP_TAPCELL_ROW_143_1347
*1656 TAP_TAPCELL_ROW_143_1348
*1657 TAP_TAPCELL_ROW_144_1349
*1658 TAP_TAPCELL_ROW_144_1350
*1659 TAP_TAPCELL_ROW_144_1351
*1660 TAP_TAPCELL_ROW_144_1352
*1661 TAP_TAPCELL_ROW_144_1353
*1662 TAP_TAPCELL_ROW_144_1354
*1663 TAP_TAPCELL_ROW_144_1355
*1664 TAP_TAPCELL_ROW_144_1356
*1665 TAP_TAPCELL_ROW_144_1357
*1666 TAP_TAPCELL_ROW_144_1358
*1667 TAP_TAPCELL_ROW_144_1359
*1668 TAP_TAPCELL_ROW_144_1360
*1669 TAP_TAPCELL_ROW_144_1361
*1670 TAP_TAPCELL_ROW_144_1362
*1671 TAP_TAPCELL_ROW_144_1363
*1672 TAP_TAPCELL_ROW_144_1364
*1673 TAP_TAPCELL_ROW_144_1365
*1674 TAP_TAPCELL_ROW_144_1366
*1675 TAP_TAPCELL_ROW_144_1367
*1676 TAP_TAPCELL_ROW_144_1368
*1677 TAP_TAPCELL_ROW_144_1369
*1678 TAP_TAPCELL_ROW_144_1370
*1679 TAP_TAPCELL_ROW_144_1371
*1680 TAP_TAPCELL_ROW_144_1372
*1681 TAP_TAPCELL_ROW_144_1373
*1682 TAP_TAPCELL_ROW_144_1374
*1683 TAP_TAPCELL_ROW_144_1375
*1684 TAP_TAPCELL_ROW_144_1376
*1685 TAP_TAPCELL_ROW_144_1377
*1686 TAP_TAPCELL_ROW_144_1378
*1687 TAP_TAPCELL_ROW_144_1379
*1688 TAP_TAPCELL_ROW_144_1380
*1689 TAP_TAPCELL_ROW_144_1381
*1690 TAP_TAPCELL_ROW_144_1382
*1691 TAP_TAPCELL_ROW_144_1383
*1692 TAP_TAPCELL_ROW_145_1384
*1693 TAP_TAPCELL_ROW_145_1385
*1694 TAP_TAPCELL_ROW_145_1386
*1695 TAP_TAPCELL_ROW_145_1387
*1696 TAP_TAPCELL_ROW_145_1388
*1697 TAP_TAPCELL_ROW_145_1389
*1698 TAP_TAPCELL_ROW_145_1390
*1699 TAP_TAPCELL_ROW_145_1391
*1700 TAP_TAPCELL_ROW_145_1392
*1701 TAP_TAPCELL_ROW_145_1393
*1702 TAP_TAPCELL_ROW_145_1394
*1703 TAP_TAPCELL_ROW_145_1395
*1704 TAP_TAPCELL_ROW_145_1396
*1705 TAP_TAPCELL_ROW_145_1397
*1706 TAP_TAPCELL_ROW_145_1398
*1707 TAP_TAPCELL_ROW_145_1399
*1708 TAP_TAPCELL_ROW_145_1400
*1709 TAP_TAPCELL_ROW_145_1401
*1710 TAP_TAPCELL_ROW_145_1402
*1711 TAP_TAPCELL_ROW_145_1403
*1712 TAP_TAPCELL_ROW_145_1404
*1713 TAP_TAPCELL_ROW_145_1405
*1714 TAP_TAPCELL_ROW_145_1406
*1715 TAP_TAPCELL_ROW_145_1407
*1716 TAP_TAPCELL_ROW_145_1408
*1717 TAP_TAPCELL_ROW_145_1409
*1718 TAP_TAPCELL_ROW_145_1410
*1719 TAP_TAPCELL_ROW_145_1411
*1720 TAP_TAPCELL_ROW_145_1412
*1721 TAP_TAPCELL_ROW_145_1413
*1722 TAP_TAPCELL_ROW_145_1414
*1723 TAP_TAPCELL_ROW_145_1415
*1724 TAP_TAPCELL_ROW_145_1416
*1725 TAP_TAPCELL_ROW_145_1417
*1726 TAP_TAPCELL_ROW_145_1418
*1727 TAP_TAPCELL_ROW_146_1419
*1728 TAP_TAPCELL_ROW_146_1420
*1729 TAP_TAPCELL_ROW_146_1421
*1730 TAP_TAPCELL_ROW_146_1422
*1731 TAP_TAPCELL_ROW_146_1423
*1732 TAP_TAPCELL_ROW_146_1424
*1733 TAP_TAPCELL_ROW_146_1425
*1734 TAP_TAPCELL_ROW_146_1426
*1735 TAP_TAPCELL_ROW_146_1427
*1736 TAP_TAPCELL_ROW_146_1428
*1737 TAP_TAPCELL_ROW_146_1429
*1738 TAP_TAPCELL_ROW_146_1430
*1739 TAP_TAPCELL_ROW_146_1431
*1740 TAP_TAPCELL_ROW_146_1432
*1741 TAP_TAPCELL_ROW_146_1433
*1742 TAP_TAPCELL_ROW_146_1434
*1743 TAP_TAPCELL_ROW_146_1435
*1744 TAP_TAPCELL_ROW_146_1436
*1745 TAP_TAPCELL_ROW_146_1437
*1746 TAP_TAPCELL_ROW_146_1438
*1747 TAP_TAPCELL_ROW_146_1439
*1748 TAP_TAPCELL_ROW_146_1440
*1749 TAP_TAPCELL_ROW_146_1441
*1750 TAP_TAPCELL_ROW_146_1442
*1751 TAP_TAPCELL_ROW_146_1443
*1752 TAP_TAPCELL_ROW_146_1444
*1753 TAP_TAPCELL_ROW_146_1445
*1754 TAP_TAPCELL_ROW_146_1446
*1755 TAP_TAPCELL_ROW_146_1447
*1756 TAP_TAPCELL_ROW_146_1448
*1757 TAP_TAPCELL_ROW_146_1449
*1758 TAP_TAPCELL_ROW_146_1450
*1759 TAP_TAPCELL_ROW_146_1451
*1760 TAP_TAPCELL_ROW_146_1452
*1761 TAP_TAPCELL_ROW_146_1453
*1762 TAP_TAPCELL_ROW_147_1454
*1763 TAP_TAPCELL_ROW_147_1455
*1764 TAP_TAPCELL_ROW_147_1456
*1765 TAP_TAPCELL_ROW_147_1457
*1766 TAP_TAPCELL_ROW_147_1458
*1767 TAP_TAPCELL_ROW_147_1459
*1768 TAP_TAPCELL_ROW_147_1460
*1769 TAP_TAPCELL_ROW_147_1461
*1770 TAP_TAPCELL_ROW_147_1462
*1771 TAP_TAPCELL_ROW_147_1463
*1772 TAP_TAPCELL_ROW_147_1464
*1773 TAP_TAPCELL_ROW_147_1465
*1774 TAP_TAPCELL_ROW_147_1466
*1775 TAP_TAPCELL_ROW_147_1467
*1776 TAP_TAPCELL_ROW_147_1468
*1777 TAP_TAPCELL_ROW_147_1469
*1778 TAP_TAPCELL_ROW_147_1470
*1779 TAP_TAPCELL_ROW_147_1471
*1780 TAP_TAPCELL_ROW_147_1472
*1781 TAP_TAPCELL_ROW_147_1473
*1782 TAP_TAPCELL_ROW_147_1474
*1783 TAP_TAPCELL_ROW_147_1475
*1784 TAP_TAPCELL_ROW_147_1476
*1785 TAP_TAPCELL_ROW_147_1477
*1786 TAP_TAPCELL_ROW_147_1478
*1787 TAP_TAPCELL_ROW_147_1479
*1788 TAP_TAPCELL_ROW_147_1480
*1789 TAP_TAPCELL_ROW_147_1481
*1790 TAP_TAPCELL_ROW_147_1482
*1791 TAP_TAPCELL_ROW_147_1483
*1792 TAP_TAPCELL_ROW_147_1484
*1793 TAP_TAPCELL_ROW_147_1485
*1794 TAP_TAPCELL_ROW_147_1486
*1795 TAP_TAPCELL_ROW_147_1487
*1796 TAP_TAPCELL_ROW_147_1488
*1797 TAP_TAPCELL_ROW_148_1489
*1798 TAP_TAPCELL_ROW_148_1490
*1799 TAP_TAPCELL_ROW_148_1491
*1800 TAP_TAPCELL_ROW_148_1492
*1801 TAP_TAPCELL_ROW_148_1493
*1802 TAP_TAPCELL_ROW_148_1494
*1803 TAP_TAPCELL_ROW_148_1495
*1804 TAP_TAPCELL_ROW_148_1496
*1805 TAP_TAPCELL_ROW_148_1497
*1806 TAP_TAPCELL_ROW_148_1498
*1807 TAP_TAPCELL_ROW_148_1499
*1808 TAP_TAPCELL_ROW_148_1500
*1809 TAP_TAPCELL_ROW_148_1501
*1810 TAP_TAPCELL_ROW_148_1502
*1811 TAP_TAPCELL_ROW_148_1503
*1812 TAP_TAPCELL_ROW_148_1504
*1813 TAP_TAPCELL_ROW_148_1505
*1814 TAP_TAPCELL_ROW_148_1506
*1815 TAP_TAPCELL_ROW_148_1507
*1816 TAP_TAPCELL_ROW_148_1508
*1817 TAP_TAPCELL_ROW_148_1509
*1818 TAP_TAPCELL_ROW_148_1510
*1819 TAP_TAPCELL_ROW_148_1511
*1820 TAP_TAPCELL_ROW_148_1512
*1821 TAP_TAPCELL_ROW_148_1513
*1822 TAP_TAPCELL_ROW_148_1514
*1823 TAP_TAPCELL_ROW_148_1515
*1824 TAP_TAPCELL_ROW_148_1516
*1825 TAP_TAPCELL_ROW_148_1517
*1826 TAP_TAPCELL_ROW_148_1518
*1827 TAP_TAPCELL_ROW_148_1519
*1828 TAP_TAPCELL_ROW_148_1520
*1829 TAP_TAPCELL_ROW_148_1521
*1830 TAP_TAPCELL_ROW_148_1522
*1831 TAP_TAPCELL_ROW_148_1523
*1832 TAP_TAPCELL_ROW_149_1524
*1833 TAP_TAPCELL_ROW_149_1525
*1834 TAP_TAPCELL_ROW_149_1526
*1835 TAP_TAPCELL_ROW_149_1527
*1836 TAP_TAPCELL_ROW_149_1528
*1837 TAP_TAPCELL_ROW_149_1529
*1838 TAP_TAPCELL_ROW_149_1530
*1839 TAP_TAPCELL_ROW_149_1531
*1840 TAP_TAPCELL_ROW_149_1532
*1841 TAP_TAPCELL_ROW_149_1533
*1842 TAP_TAPCELL_ROW_149_1534
*1843 TAP_TAPCELL_ROW_149_1535
*1844 TAP_TAPCELL_ROW_149_1536
*1845 TAP_TAPCELL_ROW_149_1537
*1846 TAP_TAPCELL_ROW_149_1538
*1847 TAP_TAPCELL_ROW_149_1539
*1848 TAP_TAPCELL_ROW_149_1540
*1849 TAP_TAPCELL_ROW_149_1541
*1850 TAP_TAPCELL_ROW_149_1542
*1851 TAP_TAPCELL_ROW_149_1543
*1852 TAP_TAPCELL_ROW_149_1544
*1853 TAP_TAPCELL_ROW_149_1545
*1854 TAP_TAPCELL_ROW_149_1546
*1855 TAP_TAPCELL_ROW_149_1547
*1856 TAP_TAPCELL_ROW_149_1548
*1857 TAP_TAPCELL_ROW_149_1549
*1858 TAP_TAPCELL_ROW_149_1550
*1859 TAP_TAPCELL_ROW_149_1551
*1860 TAP_TAPCELL_ROW_149_1552
*1861 TAP_TAPCELL_ROW_149_1553
*1862 TAP_TAPCELL_ROW_149_1554
*1863 TAP_TAPCELL_ROW_149_1555
*1864 TAP_TAPCELL_ROW_149_1556
*1865 TAP_TAPCELL_ROW_149_1557
*1866 TAP_TAPCELL_ROW_149_1558
*591 TAP_TAPCELL_ROW_14_1_283
*2504 TAP_TAPCELL_ROW_14_2_2196
*2505 TAP_TAPCELL_ROW_14_2_2197
*2506 TAP_TAPCELL_ROW_14_2_2198
*2507 TAP_TAPCELL_ROW_14_2_2199
*2508 TAP_TAPCELL_ROW_14_2_2200
*2509 TAP_TAPCELL_ROW_14_2_2201
*2510 TAP_TAPCELL_ROW_14_2_2202
*2511 TAP_TAPCELL_ROW_14_2_2203
*2512 TAP_TAPCELL_ROW_14_2_2204
*2513 TAP_TAPCELL_ROW_14_2_2205
*1867 TAP_TAPCELL_ROW_150_1559
*1868 TAP_TAPCELL_ROW_150_1560
*1869 TAP_TAPCELL_ROW_150_1561
*1870 TAP_TAPCELL_ROW_150_1562
*1871 TAP_TAPCELL_ROW_150_1563
*1872 TAP_TAPCELL_ROW_150_1564
*1873 TAP_TAPCELL_ROW_150_1565
*1874 TAP_TAPCELL_ROW_150_1566
*1875 TAP_TAPCELL_ROW_150_1567
*1876 TAP_TAPCELL_ROW_150_1568
*1877 TAP_TAPCELL_ROW_150_1569
*1878 TAP_TAPCELL_ROW_150_1570
*1879 TAP_TAPCELL_ROW_150_1571
*1880 TAP_TAPCELL_ROW_150_1572
*1881 TAP_TAPCELL_ROW_150_1573
*1882 TAP_TAPCELL_ROW_150_1574
*1883 TAP_TAPCELL_ROW_150_1575
*1884 TAP_TAPCELL_ROW_150_1576
*1885 TAP_TAPCELL_ROW_150_1577
*1886 TAP_TAPCELL_ROW_150_1578
*1887 TAP_TAPCELL_ROW_150_1579
*1888 TAP_TAPCELL_ROW_150_1580
*1889 TAP_TAPCELL_ROW_150_1581
*1890 TAP_TAPCELL_ROW_150_1582
*1891 TAP_TAPCELL_ROW_150_1583
*1892 TAP_TAPCELL_ROW_150_1584
*1893 TAP_TAPCELL_ROW_150_1585
*1894 TAP_TAPCELL_ROW_150_1586
*1895 TAP_TAPCELL_ROW_150_1587
*1896 TAP_TAPCELL_ROW_150_1588
*1897 TAP_TAPCELL_ROW_150_1589
*1898 TAP_TAPCELL_ROW_150_1590
*1899 TAP_TAPCELL_ROW_150_1591
*1900 TAP_TAPCELL_ROW_150_1592
*1901 TAP_TAPCELL_ROW_150_1593
*1902 TAP_TAPCELL_ROW_151_1594
*1903 TAP_TAPCELL_ROW_151_1595
*1904 TAP_TAPCELL_ROW_151_1596
*1905 TAP_TAPCELL_ROW_151_1597
*1906 TAP_TAPCELL_ROW_151_1598
*1907 TAP_TAPCELL_ROW_151_1599
*1908 TAP_TAPCELL_ROW_151_1600
*1909 TAP_TAPCELL_ROW_151_1601
*1910 TAP_TAPCELL_ROW_151_1602
*1911 TAP_TAPCELL_ROW_151_1603
*1912 TAP_TAPCELL_ROW_151_1604
*1913 TAP_TAPCELL_ROW_151_1605
*1914 TAP_TAPCELL_ROW_151_1606
*1915 TAP_TAPCELL_ROW_151_1607
*1916 TAP_TAPCELL_ROW_151_1608
*1917 TAP_TAPCELL_ROW_151_1609
*1918 TAP_TAPCELL_ROW_151_1610
*1919 TAP_TAPCELL_ROW_151_1611
*1920 TAP_TAPCELL_ROW_151_1612
*1921 TAP_TAPCELL_ROW_151_1613
*1922 TAP_TAPCELL_ROW_151_1614
*1923 TAP_TAPCELL_ROW_151_1615
*1924 TAP_TAPCELL_ROW_151_1616
*1925 TAP_TAPCELL_ROW_151_1617
*1926 TAP_TAPCELL_ROW_151_1618
*1927 TAP_TAPCELL_ROW_151_1619
*1928 TAP_TAPCELL_ROW_151_1620
*1929 TAP_TAPCELL_ROW_151_1621
*1930 TAP_TAPCELL_ROW_151_1622
*1931 TAP_TAPCELL_ROW_151_1623
*1932 TAP_TAPCELL_ROW_151_1624
*1933 TAP_TAPCELL_ROW_151_1625
*1934 TAP_TAPCELL_ROW_151_1626
*1935 TAP_TAPCELL_ROW_151_1627
*1936 TAP_TAPCELL_ROW_151_1628
*1937 TAP_TAPCELL_ROW_152_1629
*1938 TAP_TAPCELL_ROW_152_1630
*1939 TAP_TAPCELL_ROW_152_1631
*1940 TAP_TAPCELL_ROW_152_1632
*1941 TAP_TAPCELL_ROW_152_1633
*1942 TAP_TAPCELL_ROW_152_1634
*1943 TAP_TAPCELL_ROW_152_1635
*1944 TAP_TAPCELL_ROW_152_1636
*1945 TAP_TAPCELL_ROW_152_1637
*1946 TAP_TAPCELL_ROW_152_1638
*1947 TAP_TAPCELL_ROW_152_1639
*1948 TAP_TAPCELL_ROW_152_1640
*1949 TAP_TAPCELL_ROW_152_1641
*1950 TAP_TAPCELL_ROW_152_1642
*1951 TAP_TAPCELL_ROW_152_1643
*1952 TAP_TAPCELL_ROW_152_1644
*1953 TAP_TAPCELL_ROW_152_1645
*1954 TAP_TAPCELL_ROW_152_1646
*1955 TAP_TAPCELL_ROW_152_1647
*1956 TAP_TAPCELL_ROW_152_1648
*1957 TAP_TAPCELL_ROW_152_1649
*1958 TAP_TAPCELL_ROW_152_1650
*1959 TAP_TAPCELL_ROW_152_1651
*1960 TAP_TAPCELL_ROW_152_1652
*1961 TAP_TAPCELL_ROW_152_1653
*1962 TAP_TAPCELL_ROW_152_1654
*1963 TAP_TAPCELL_ROW_152_1655
*1964 TAP_TAPCELL_ROW_152_1656
*1965 TAP_TAPCELL_ROW_152_1657
*1966 TAP_TAPCELL_ROW_152_1658
*1967 TAP_TAPCELL_ROW_152_1659
*1968 TAP_TAPCELL_ROW_152_1660
*1969 TAP_TAPCELL_ROW_152_1661
*1970 TAP_TAPCELL_ROW_152_1662
*1971 TAP_TAPCELL_ROW_152_1663
*1972 TAP_TAPCELL_ROW_153_1664
*1973 TAP_TAPCELL_ROW_153_1665
*1974 TAP_TAPCELL_ROW_153_1666
*1975 TAP_TAPCELL_ROW_153_1667
*1976 TAP_TAPCELL_ROW_153_1668
*1977 TAP_TAPCELL_ROW_153_1669
*1978 TAP_TAPCELL_ROW_153_1670
*1979 TAP_TAPCELL_ROW_153_1671
*1980 TAP_TAPCELL_ROW_153_1672
*1981 TAP_TAPCELL_ROW_153_1673
*1982 TAP_TAPCELL_ROW_153_1674
*1983 TAP_TAPCELL_ROW_153_1675
*1984 TAP_TAPCELL_ROW_153_1676
*1985 TAP_TAPCELL_ROW_153_1677
*1986 TAP_TAPCELL_ROW_153_1678
*1987 TAP_TAPCELL_ROW_153_1679
*1988 TAP_TAPCELL_ROW_153_1680
*1989 TAP_TAPCELL_ROW_153_1681
*1990 TAP_TAPCELL_ROW_153_1682
*1991 TAP_TAPCELL_ROW_153_1683
*1992 TAP_TAPCELL_ROW_153_1684
*1993 TAP_TAPCELL_ROW_153_1685
*1994 TAP_TAPCELL_ROW_153_1686
*1995 TAP_TAPCELL_ROW_153_1687
*1996 TAP_TAPCELL_ROW_153_1688
*1997 TAP_TAPCELL_ROW_153_1689
*1998 TAP_TAPCELL_ROW_153_1690
*1999 TAP_TAPCELL_ROW_153_1691
*2000 TAP_TAPCELL_ROW_153_1692
*2001 TAP_TAPCELL_ROW_153_1693
*2002 TAP_TAPCELL_ROW_153_1694
*2003 TAP_TAPCELL_ROW_153_1695
*2004 TAP_TAPCELL_ROW_153_1696
*2005 TAP_TAPCELL_ROW_153_1697
*2006 TAP_TAPCELL_ROW_153_1698
*2007 TAP_TAPCELL_ROW_154_1699
*2008 TAP_TAPCELL_ROW_154_1700
*2009 TAP_TAPCELL_ROW_154_1701
*2010 TAP_TAPCELL_ROW_154_1702
*2011 TAP_TAPCELL_ROW_154_1703
*2012 TAP_TAPCELL_ROW_154_1704
*2013 TAP_TAPCELL_ROW_154_1705
*2014 TAP_TAPCELL_ROW_154_1706
*2015 TAP_TAPCELL_ROW_154_1707
*2016 TAP_TAPCELL_ROW_154_1708
*2017 TAP_TAPCELL_ROW_154_1709
*2018 TAP_TAPCELL_ROW_154_1710
*2019 TAP_TAPCELL_ROW_154_1711
*2020 TAP_TAPCELL_ROW_154_1712
*2021 TAP_TAPCELL_ROW_154_1713
*2022 TAP_TAPCELL_ROW_154_1714
*2023 TAP_TAPCELL_ROW_154_1715
*2024 TAP_TAPCELL_ROW_154_1716
*2025 TAP_TAPCELL_ROW_154_1717
*2026 TAP_TAPCELL_ROW_154_1718
*2027 TAP_TAPCELL_ROW_154_1719
*2028 TAP_TAPCELL_ROW_154_1720
*2029 TAP_TAPCELL_ROW_154_1721
*2030 TAP_TAPCELL_ROW_154_1722
*2031 TAP_TAPCELL_ROW_154_1723
*2032 TAP_TAPCELL_ROW_154_1724
*2033 TAP_TAPCELL_ROW_154_1725
*2034 TAP_TAPCELL_ROW_154_1726
*2035 TAP_TAPCELL_ROW_154_1727
*2036 TAP_TAPCELL_ROW_154_1728
*2037 TAP_TAPCELL_ROW_154_1729
*2038 TAP_TAPCELL_ROW_154_1730
*2039 TAP_TAPCELL_ROW_154_1731
*2040 TAP_TAPCELL_ROW_154_1732
*2041 TAP_TAPCELL_ROW_154_1733
*2042 TAP_TAPCELL_ROW_155_1734
*2043 TAP_TAPCELL_ROW_155_1735
*2044 TAP_TAPCELL_ROW_155_1736
*2045 TAP_TAPCELL_ROW_155_1737
*2046 TAP_TAPCELL_ROW_155_1738
*2047 TAP_TAPCELL_ROW_155_1739
*2048 TAP_TAPCELL_ROW_155_1740
*2049 TAP_TAPCELL_ROW_155_1741
*2050 TAP_TAPCELL_ROW_155_1742
*2051 TAP_TAPCELL_ROW_155_1743
*2052 TAP_TAPCELL_ROW_155_1744
*2053 TAP_TAPCELL_ROW_155_1745
*2054 TAP_TAPCELL_ROW_155_1746
*2055 TAP_TAPCELL_ROW_155_1747
*2056 TAP_TAPCELL_ROW_155_1748
*2057 TAP_TAPCELL_ROW_155_1749
*2058 TAP_TAPCELL_ROW_155_1750
*2059 TAP_TAPCELL_ROW_155_1751
*2060 TAP_TAPCELL_ROW_155_1752
*2061 TAP_TAPCELL_ROW_155_1753
*2062 TAP_TAPCELL_ROW_155_1754
*2063 TAP_TAPCELL_ROW_155_1755
*2064 TAP_TAPCELL_ROW_155_1756
*2065 TAP_TAPCELL_ROW_155_1757
*2066 TAP_TAPCELL_ROW_155_1758
*2067 TAP_TAPCELL_ROW_155_1759
*2068 TAP_TAPCELL_ROW_155_1760
*2069 TAP_TAPCELL_ROW_155_1761
*2070 TAP_TAPCELL_ROW_155_1762
*2071 TAP_TAPCELL_ROW_155_1763
*2072 TAP_TAPCELL_ROW_155_1764
*2073 TAP_TAPCELL_ROW_155_1765
*2074 TAP_TAPCELL_ROW_155_1766
*2075 TAP_TAPCELL_ROW_155_1767
*2076 TAP_TAPCELL_ROW_155_1768
*2077 TAP_TAPCELL_ROW_156_1769
*2078 TAP_TAPCELL_ROW_156_1770
*2079 TAP_TAPCELL_ROW_156_1771
*2080 TAP_TAPCELL_ROW_156_1772
*2081 TAP_TAPCELL_ROW_156_1773
*2082 TAP_TAPCELL_ROW_156_1774
*2083 TAP_TAPCELL_ROW_156_1775
*2084 TAP_TAPCELL_ROW_156_1776
*2085 TAP_TAPCELL_ROW_156_1777
*2086 TAP_TAPCELL_ROW_156_1778
*2087 TAP_TAPCELL_ROW_156_1779
*2088 TAP_TAPCELL_ROW_156_1780
*2089 TAP_TAPCELL_ROW_156_1781
*2090 TAP_TAPCELL_ROW_156_1782
*2091 TAP_TAPCELL_ROW_156_1783
*2092 TAP_TAPCELL_ROW_156_1784
*2093 TAP_TAPCELL_ROW_156_1785
*2094 TAP_TAPCELL_ROW_156_1786
*2095 TAP_TAPCELL_ROW_156_1787
*2096 TAP_TAPCELL_ROW_156_1788
*2097 TAP_TAPCELL_ROW_156_1789
*2098 TAP_TAPCELL_ROW_156_1790
*2099 TAP_TAPCELL_ROW_156_1791
*2100 TAP_TAPCELL_ROW_156_1792
*2101 TAP_TAPCELL_ROW_156_1793
*2102 TAP_TAPCELL_ROW_156_1794
*2103 TAP_TAPCELL_ROW_156_1795
*2104 TAP_TAPCELL_ROW_156_1796
*2105 TAP_TAPCELL_ROW_156_1797
*2106 TAP_TAPCELL_ROW_156_1798
*2107 TAP_TAPCELL_ROW_156_1799
*2108 TAP_TAPCELL_ROW_156_1800
*2109 TAP_TAPCELL_ROW_156_1801
*2110 TAP_TAPCELL_ROW_156_1802
*2111 TAP_TAPCELL_ROW_156_1803
*2112 TAP_TAPCELL_ROW_157_1804
*2113 TAP_TAPCELL_ROW_157_1805
*2114 TAP_TAPCELL_ROW_157_1806
*2115 TAP_TAPCELL_ROW_157_1807
*2116 TAP_TAPCELL_ROW_157_1808
*2117 TAP_TAPCELL_ROW_157_1809
*2118 TAP_TAPCELL_ROW_157_1810
*2119 TAP_TAPCELL_ROW_157_1811
*2120 TAP_TAPCELL_ROW_157_1812
*2121 TAP_TAPCELL_ROW_157_1813
*2122 TAP_TAPCELL_ROW_157_1814
*2123 TAP_TAPCELL_ROW_157_1815
*2124 TAP_TAPCELL_ROW_157_1816
*2125 TAP_TAPCELL_ROW_157_1817
*2126 TAP_TAPCELL_ROW_157_1818
*2127 TAP_TAPCELL_ROW_157_1819
*2128 TAP_TAPCELL_ROW_157_1820
*2129 TAP_TAPCELL_ROW_157_1821
*2130 TAP_TAPCELL_ROW_157_1822
*2131 TAP_TAPCELL_ROW_157_1823
*2132 TAP_TAPCELL_ROW_157_1824
*2133 TAP_TAPCELL_ROW_157_1825
*2134 TAP_TAPCELL_ROW_157_1826
*2135 TAP_TAPCELL_ROW_157_1827
*2136 TAP_TAPCELL_ROW_157_1828
*2137 TAP_TAPCELL_ROW_157_1829
*2138 TAP_TAPCELL_ROW_157_1830
*2139 TAP_TAPCELL_ROW_157_1831
*2140 TAP_TAPCELL_ROW_157_1832
*2141 TAP_TAPCELL_ROW_157_1833
*2142 TAP_TAPCELL_ROW_157_1834
*2143 TAP_TAPCELL_ROW_157_1835
*2144 TAP_TAPCELL_ROW_157_1836
*2145 TAP_TAPCELL_ROW_157_1837
*2146 TAP_TAPCELL_ROW_157_1838
*2147 TAP_TAPCELL_ROW_158_1839
*2148 TAP_TAPCELL_ROW_158_1840
*2149 TAP_TAPCELL_ROW_158_1841
*2150 TAP_TAPCELL_ROW_158_1842
*2151 TAP_TAPCELL_ROW_158_1843
*2152 TAP_TAPCELL_ROW_158_1844
*2153 TAP_TAPCELL_ROW_158_1845
*2154 TAP_TAPCELL_ROW_158_1846
*2155 TAP_TAPCELL_ROW_158_1847
*2156 TAP_TAPCELL_ROW_158_1848
*2157 TAP_TAPCELL_ROW_158_1849
*2158 TAP_TAPCELL_ROW_158_1850
*2159 TAP_TAPCELL_ROW_158_1851
*2160 TAP_TAPCELL_ROW_158_1852
*2161 TAP_TAPCELL_ROW_158_1853
*2162 TAP_TAPCELL_ROW_158_1854
*2163 TAP_TAPCELL_ROW_158_1855
*2164 TAP_TAPCELL_ROW_158_1856
*2165 TAP_TAPCELL_ROW_158_1857
*2166 TAP_TAPCELL_ROW_158_1858
*2167 TAP_TAPCELL_ROW_158_1859
*2168 TAP_TAPCELL_ROW_158_1860
*2169 TAP_TAPCELL_ROW_158_1861
*2170 TAP_TAPCELL_ROW_158_1862
*2171 TAP_TAPCELL_ROW_158_1863
*2172 TAP_TAPCELL_ROW_158_1864
*2173 TAP_TAPCELL_ROW_158_1865
*2174 TAP_TAPCELL_ROW_158_1866
*2175 TAP_TAPCELL_ROW_158_1867
*2176 TAP_TAPCELL_ROW_158_1868
*2177 TAP_TAPCELL_ROW_158_1869
*2178 TAP_TAPCELL_ROW_158_1870
*2179 TAP_TAPCELL_ROW_158_1871
*2180 TAP_TAPCELL_ROW_158_1872
*2181 TAP_TAPCELL_ROW_158_1873
*2182 TAP_TAPCELL_ROW_159_1874
*2183 TAP_TAPCELL_ROW_159_1875
*2184 TAP_TAPCELL_ROW_159_1876
*2185 TAP_TAPCELL_ROW_159_1877
*2186 TAP_TAPCELL_ROW_159_1878
*2187 TAP_TAPCELL_ROW_159_1879
*2188 TAP_TAPCELL_ROW_159_1880
*2189 TAP_TAPCELL_ROW_159_1881
*2190 TAP_TAPCELL_ROW_159_1882
*2191 TAP_TAPCELL_ROW_159_1883
*2192 TAP_TAPCELL_ROW_159_1884
*2193 TAP_TAPCELL_ROW_159_1885
*2194 TAP_TAPCELL_ROW_159_1886
*2195 TAP_TAPCELL_ROW_159_1887
*2196 TAP_TAPCELL_ROW_159_1888
*2197 TAP_TAPCELL_ROW_159_1889
*2198 TAP_TAPCELL_ROW_159_1890
*2199 TAP_TAPCELL_ROW_159_1891
*2200 TAP_TAPCELL_ROW_159_1892
*2201 TAP_TAPCELL_ROW_159_1893
*2202 TAP_TAPCELL_ROW_159_1894
*2203 TAP_TAPCELL_ROW_159_1895
*2204 TAP_TAPCELL_ROW_159_1896
*2205 TAP_TAPCELL_ROW_159_1897
*2206 TAP_TAPCELL_ROW_159_1898
*2207 TAP_TAPCELL_ROW_159_1899
*2208 TAP_TAPCELL_ROW_159_1900
*2209 TAP_TAPCELL_ROW_159_1901
*2210 TAP_TAPCELL_ROW_159_1902
*2211 TAP_TAPCELL_ROW_159_1903
*2212 TAP_TAPCELL_ROW_159_1904
*2213 TAP_TAPCELL_ROW_159_1905
*2214 TAP_TAPCELL_ROW_159_1906
*2215 TAP_TAPCELL_ROW_159_1907
*2216 TAP_TAPCELL_ROW_159_1908
*2514 TAP_TAPCELL_ROW_15_2_2206
*2515 TAP_TAPCELL_ROW_15_2_2207
*2516 TAP_TAPCELL_ROW_15_2_2208
*2517 TAP_TAPCELL_ROW_15_2_2209
*2518 TAP_TAPCELL_ROW_15_2_2210
*2519 TAP_TAPCELL_ROW_15_2_2211
*2520 TAP_TAPCELL_ROW_15_2_2212
*2521 TAP_TAPCELL_ROW_15_2_2213
*2522 TAP_TAPCELL_ROW_15_2_2214
*2217 TAP_TAPCELL_ROW_160_1909
*2218 TAP_TAPCELL_ROW_160_1910
*2219 TAP_TAPCELL_ROW_160_1911
*2220 TAP_TAPCELL_ROW_160_1912
*2221 TAP_TAPCELL_ROW_160_1913
*2222 TAP_TAPCELL_ROW_160_1914
*2223 TAP_TAPCELL_ROW_160_1915
*2224 TAP_TAPCELL_ROW_160_1916
*2225 TAP_TAPCELL_ROW_160_1917
*2226 TAP_TAPCELL_ROW_160_1918
*2227 TAP_TAPCELL_ROW_160_1919
*2228 TAP_TAPCELL_ROW_160_1920
*2229 TAP_TAPCELL_ROW_160_1921
*2230 TAP_TAPCELL_ROW_160_1922
*2231 TAP_TAPCELL_ROW_160_1923
*2232 TAP_TAPCELL_ROW_160_1924
*2233 TAP_TAPCELL_ROW_160_1925
*2234 TAP_TAPCELL_ROW_160_1926
*2235 TAP_TAPCELL_ROW_160_1927
*2236 TAP_TAPCELL_ROW_160_1928
*2237 TAP_TAPCELL_ROW_160_1929
*2238 TAP_TAPCELL_ROW_160_1930
*2239 TAP_TAPCELL_ROW_160_1931
*2240 TAP_TAPCELL_ROW_160_1932
*2241 TAP_TAPCELL_ROW_160_1933
*2242 TAP_TAPCELL_ROW_160_1934
*2243 TAP_TAPCELL_ROW_160_1935
*2244 TAP_TAPCELL_ROW_160_1936
*2245 TAP_TAPCELL_ROW_160_1937
*2246 TAP_TAPCELL_ROW_160_1938
*2247 TAP_TAPCELL_ROW_160_1939
*2248 TAP_TAPCELL_ROW_160_1940
*2249 TAP_TAPCELL_ROW_160_1941
*2250 TAP_TAPCELL_ROW_160_1942
*2251 TAP_TAPCELL_ROW_160_1943
*2252 TAP_TAPCELL_ROW_161_1944
*2253 TAP_TAPCELL_ROW_161_1945
*2254 TAP_TAPCELL_ROW_161_1946
*2255 TAP_TAPCELL_ROW_161_1947
*2256 TAP_TAPCELL_ROW_161_1948
*2257 TAP_TAPCELL_ROW_161_1949
*2258 TAP_TAPCELL_ROW_161_1950
*2259 TAP_TAPCELL_ROW_161_1951
*2260 TAP_TAPCELL_ROW_161_1952
*2261 TAP_TAPCELL_ROW_161_1953
*2262 TAP_TAPCELL_ROW_161_1954
*2263 TAP_TAPCELL_ROW_161_1955
*2264 TAP_TAPCELL_ROW_161_1956
*2265 TAP_TAPCELL_ROW_161_1957
*2266 TAP_TAPCELL_ROW_161_1958
*2267 TAP_TAPCELL_ROW_161_1959
*2268 TAP_TAPCELL_ROW_161_1960
*2269 TAP_TAPCELL_ROW_161_1961
*2270 TAP_TAPCELL_ROW_161_1962
*2271 TAP_TAPCELL_ROW_161_1963
*2272 TAP_TAPCELL_ROW_161_1964
*2273 TAP_TAPCELL_ROW_161_1965
*2274 TAP_TAPCELL_ROW_161_1966
*2275 TAP_TAPCELL_ROW_161_1967
*2276 TAP_TAPCELL_ROW_161_1968
*2277 TAP_TAPCELL_ROW_161_1969
*2278 TAP_TAPCELL_ROW_161_1970
*2279 TAP_TAPCELL_ROW_161_1971
*2280 TAP_TAPCELL_ROW_161_1972
*2281 TAP_TAPCELL_ROW_161_1973
*2282 TAP_TAPCELL_ROW_161_1974
*2283 TAP_TAPCELL_ROW_161_1975
*2284 TAP_TAPCELL_ROW_161_1976
*2285 TAP_TAPCELL_ROW_161_1977
*2286 TAP_TAPCELL_ROW_161_1978
*2287 TAP_TAPCELL_ROW_162_1979
*2288 TAP_TAPCELL_ROW_162_1980
*2289 TAP_TAPCELL_ROW_162_1981
*2290 TAP_TAPCELL_ROW_162_1982
*2291 TAP_TAPCELL_ROW_162_1983
*2292 TAP_TAPCELL_ROW_162_1984
*2293 TAP_TAPCELL_ROW_162_1985
*2294 TAP_TAPCELL_ROW_162_1986
*2295 TAP_TAPCELL_ROW_162_1987
*2296 TAP_TAPCELL_ROW_162_1988
*2297 TAP_TAPCELL_ROW_162_1989
*2298 TAP_TAPCELL_ROW_162_1990
*2299 TAP_TAPCELL_ROW_162_1991
*2300 TAP_TAPCELL_ROW_162_1992
*2301 TAP_TAPCELL_ROW_162_1993
*2302 TAP_TAPCELL_ROW_162_1994
*2303 TAP_TAPCELL_ROW_162_1995
*2304 TAP_TAPCELL_ROW_162_1996
*2305 TAP_TAPCELL_ROW_162_1997
*2306 TAP_TAPCELL_ROW_162_1998
*2307 TAP_TAPCELL_ROW_162_1999
*2308 TAP_TAPCELL_ROW_162_2000
*2309 TAP_TAPCELL_ROW_162_2001
*2310 TAP_TAPCELL_ROW_162_2002
*2311 TAP_TAPCELL_ROW_162_2003
*2312 TAP_TAPCELL_ROW_162_2004
*2313 TAP_TAPCELL_ROW_162_2005
*2314 TAP_TAPCELL_ROW_162_2006
*2315 TAP_TAPCELL_ROW_162_2007
*2316 TAP_TAPCELL_ROW_162_2008
*2317 TAP_TAPCELL_ROW_162_2009
*2318 TAP_TAPCELL_ROW_162_2010
*2319 TAP_TAPCELL_ROW_162_2011
*2320 TAP_TAPCELL_ROW_162_2012
*2321 TAP_TAPCELL_ROW_162_2013
*2322 TAP_TAPCELL_ROW_163_2014
*2323 TAP_TAPCELL_ROW_163_2015
*2324 TAP_TAPCELL_ROW_163_2016
*2325 TAP_TAPCELL_ROW_163_2017
*2326 TAP_TAPCELL_ROW_163_2018
*2327 TAP_TAPCELL_ROW_163_2019
*2328 TAP_TAPCELL_ROW_163_2020
*2329 TAP_TAPCELL_ROW_163_2021
*2330 TAP_TAPCELL_ROW_163_2022
*2331 TAP_TAPCELL_ROW_163_2023
*2332 TAP_TAPCELL_ROW_163_2024
*2333 TAP_TAPCELL_ROW_163_2025
*2334 TAP_TAPCELL_ROW_163_2026
*2335 TAP_TAPCELL_ROW_163_2027
*2336 TAP_TAPCELL_ROW_163_2028
*2337 TAP_TAPCELL_ROW_163_2029
*2338 TAP_TAPCELL_ROW_163_2030
*2339 TAP_TAPCELL_ROW_163_2031
*2340 TAP_TAPCELL_ROW_163_2032
*2341 TAP_TAPCELL_ROW_163_2033
*2342 TAP_TAPCELL_ROW_163_2034
*2343 TAP_TAPCELL_ROW_163_2035
*2344 TAP_TAPCELL_ROW_163_2036
*2345 TAP_TAPCELL_ROW_163_2037
*2346 TAP_TAPCELL_ROW_163_2038
*2347 TAP_TAPCELL_ROW_163_2039
*2348 TAP_TAPCELL_ROW_163_2040
*2349 TAP_TAPCELL_ROW_163_2041
*2350 TAP_TAPCELL_ROW_163_2042
*2351 TAP_TAPCELL_ROW_163_2043
*2352 TAP_TAPCELL_ROW_163_2044
*2353 TAP_TAPCELL_ROW_163_2045
*2354 TAP_TAPCELL_ROW_163_2046
*2355 TAP_TAPCELL_ROW_163_2047
*2356 TAP_TAPCELL_ROW_163_2048
*2357 TAP_TAPCELL_ROW_164_2049
*2358 TAP_TAPCELL_ROW_164_2050
*2359 TAP_TAPCELL_ROW_164_2051
*2360 TAP_TAPCELL_ROW_164_2052
*2361 TAP_TAPCELL_ROW_164_2053
*2362 TAP_TAPCELL_ROW_164_2054
*2363 TAP_TAPCELL_ROW_164_2055
*2364 TAP_TAPCELL_ROW_164_2056
*2365 TAP_TAPCELL_ROW_164_2057
*2366 TAP_TAPCELL_ROW_164_2058
*2367 TAP_TAPCELL_ROW_164_2059
*2368 TAP_TAPCELL_ROW_164_2060
*2369 TAP_TAPCELL_ROW_164_2061
*2370 TAP_TAPCELL_ROW_164_2062
*2371 TAP_TAPCELL_ROW_164_2063
*2372 TAP_TAPCELL_ROW_164_2064
*2373 TAP_TAPCELL_ROW_164_2065
*2374 TAP_TAPCELL_ROW_164_2066
*2375 TAP_TAPCELL_ROW_164_2067
*2376 TAP_TAPCELL_ROW_164_2068
*2377 TAP_TAPCELL_ROW_164_2069
*2378 TAP_TAPCELL_ROW_164_2070
*2379 TAP_TAPCELL_ROW_164_2071
*2380 TAP_TAPCELL_ROW_164_2072
*2381 TAP_TAPCELL_ROW_164_2073
*2382 TAP_TAPCELL_ROW_164_2074
*2383 TAP_TAPCELL_ROW_164_2075
*2384 TAP_TAPCELL_ROW_164_2076
*2385 TAP_TAPCELL_ROW_164_2077
*2386 TAP_TAPCELL_ROW_164_2078
*2387 TAP_TAPCELL_ROW_164_2079
*2388 TAP_TAPCELL_ROW_164_2080
*2389 TAP_TAPCELL_ROW_164_2081
*2390 TAP_TAPCELL_ROW_164_2082
*2391 TAP_TAPCELL_ROW_164_2083
*2392 TAP_TAPCELL_ROW_164_2084
*2393 TAP_TAPCELL_ROW_164_2085
*2394 TAP_TAPCELL_ROW_164_2086
*2395 TAP_TAPCELL_ROW_164_2087
*2396 TAP_TAPCELL_ROW_164_2088
*2397 TAP_TAPCELL_ROW_164_2089
*2398 TAP_TAPCELL_ROW_164_2090
*2399 TAP_TAPCELL_ROW_164_2091
*2400 TAP_TAPCELL_ROW_164_2092
*2401 TAP_TAPCELL_ROW_164_2093
*2402 TAP_TAPCELL_ROW_164_2094
*2403 TAP_TAPCELL_ROW_164_2095
*2404 TAP_TAPCELL_ROW_164_2096
*2405 TAP_TAPCELL_ROW_164_2097
*2406 TAP_TAPCELL_ROW_164_2098
*2407 TAP_TAPCELL_ROW_164_2099
*2408 TAP_TAPCELL_ROW_164_2100
*2409 TAP_TAPCELL_ROW_164_2101
*2410 TAP_TAPCELL_ROW_164_2102
*2411 TAP_TAPCELL_ROW_164_2103
*2412 TAP_TAPCELL_ROW_164_2104
*2413 TAP_TAPCELL_ROW_164_2105
*2414 TAP_TAPCELL_ROW_164_2106
*2415 TAP_TAPCELL_ROW_164_2107
*2416 TAP_TAPCELL_ROW_164_2108
*2417 TAP_TAPCELL_ROW_164_2109
*2418 TAP_TAPCELL_ROW_164_2110
*2419 TAP_TAPCELL_ROW_164_2111
*2420 TAP_TAPCELL_ROW_164_2112
*2421 TAP_TAPCELL_ROW_164_2113
*2422 TAP_TAPCELL_ROW_164_2114
*2423 TAP_TAPCELL_ROW_164_2115
*2424 TAP_TAPCELL_ROW_164_2116
*2425 TAP_TAPCELL_ROW_164_2117
*2426 TAP_TAPCELL_ROW_164_2118
*592 TAP_TAPCELL_ROW_16_1_284
*2523 TAP_TAPCELL_ROW_16_2_2215
*2524 TAP_TAPCELL_ROW_16_2_2216
*2525 TAP_TAPCELL_ROW_16_2_2217
*2526 TAP_TAPCELL_ROW_16_2_2218
*2527 TAP_TAPCELL_ROW_16_2_2219
*2528 TAP_TAPCELL_ROW_16_2_2220
*2529 TAP_TAPCELL_ROW_16_2_2221
*2530 TAP_TAPCELL_ROW_16_2_2222
*2531 TAP_TAPCELL_ROW_16_2_2223
*2532 TAP_TAPCELL_ROW_16_2_2224
*2533 TAP_TAPCELL_ROW_17_2_2225
*2534 TAP_TAPCELL_ROW_17_2_2226
*2535 TAP_TAPCELL_ROW_17_2_2227
*2536 TAP_TAPCELL_ROW_17_2_2228
*2537 TAP_TAPCELL_ROW_17_2_2229
*2538 TAP_TAPCELL_ROW_17_2_2230
*2539 TAP_TAPCELL_ROW_17_2_2231
*2540 TAP_TAPCELL_ROW_17_2_2232
*2541 TAP_TAPCELL_ROW_17_2_2233
*593 TAP_TAPCELL_ROW_18_1_285
*2542 TAP_TAPCELL_ROW_18_2_2234
*2543 TAP_TAPCELL_ROW_18_2_2235
*2544 TAP_TAPCELL_ROW_18_2_2236
*2545 TAP_TAPCELL_ROW_18_2_2237
*2546 TAP_TAPCELL_ROW_18_2_2238
*2547 TAP_TAPCELL_ROW_18_2_2239
*2548 TAP_TAPCELL_ROW_18_2_2240
*2549 TAP_TAPCELL_ROW_18_2_2241
*2550 TAP_TAPCELL_ROW_18_2_2242
*2551 TAP_TAPCELL_ROW_18_2_2243
*2552 TAP_TAPCELL_ROW_19_2_2244
*2553 TAP_TAPCELL_ROW_19_2_2245
*2554 TAP_TAPCELL_ROW_19_2_2246
*2555 TAP_TAPCELL_ROW_19_2_2247
*2556 TAP_TAPCELL_ROW_19_2_2248
*2557 TAP_TAPCELL_ROW_19_2_2249
*2558 TAP_TAPCELL_ROW_19_2_2250
*2559 TAP_TAPCELL_ROW_19_2_2251
*2560 TAP_TAPCELL_ROW_19_2_2252
*408 TAP_TAPCELL_ROW_1_100
*409 TAP_TAPCELL_ROW_1_101
*410 TAP_TAPCELL_ROW_1_102
*411 TAP_TAPCELL_ROW_1_103
*412 TAP_TAPCELL_ROW_1_104
*378 TAP_TAPCELL_ROW_1_70
*379 TAP_TAPCELL_ROW_1_71
*380 TAP_TAPCELL_ROW_1_72
*381 TAP_TAPCELL_ROW_1_73
*382 TAP_TAPCELL_ROW_1_74
*383 TAP_TAPCELL_ROW_1_75
*384 TAP_TAPCELL_ROW_1_76
*385 TAP_TAPCELL_ROW_1_77
*386 TAP_TAPCELL_ROW_1_78
*387 TAP_TAPCELL_ROW_1_79
*388 TAP_TAPCELL_ROW_1_80
*389 TAP_TAPCELL_ROW_1_81
*390 TAP_TAPCELL_ROW_1_82
*391 TAP_TAPCELL_ROW_1_83
*392 TAP_TAPCELL_ROW_1_84
*393 TAP_TAPCELL_ROW_1_85
*394 TAP_TAPCELL_ROW_1_86
*395 TAP_TAPCELL_ROW_1_87
*396 TAP_TAPCELL_ROW_1_88
*397 TAP_TAPCELL_ROW_1_89
*398 TAP_TAPCELL_ROW_1_90
*399 TAP_TAPCELL_ROW_1_91
*400 TAP_TAPCELL_ROW_1_92
*401 TAP_TAPCELL_ROW_1_93
*402 TAP_TAPCELL_ROW_1_94
*403 TAP_TAPCELL_ROW_1_95
*404 TAP_TAPCELL_ROW_1_96
*405 TAP_TAPCELL_ROW_1_97
*406 TAP_TAPCELL_ROW_1_98
*407 TAP_TAPCELL_ROW_1_99
*594 TAP_TAPCELL_ROW_20_1_286
*2561 TAP_TAPCELL_ROW_20_2_2253
*2562 TAP_TAPCELL_ROW_20_2_2254
*2563 TAP_TAPCELL_ROW_20_2_2255
*2564 TAP_TAPCELL_ROW_20_2_2256
*2565 TAP_TAPCELL_ROW_20_2_2257
*2566 TAP_TAPCELL_ROW_20_2_2258
*2567 TAP_TAPCELL_ROW_20_2_2259
*2568 TAP_TAPCELL_ROW_20_2_2260
*2569 TAP_TAPCELL_ROW_20_2_2261
*2570 TAP_TAPCELL_ROW_20_2_2262
*2571 TAP_TAPCELL_ROW_21_2_2263
*2572 TAP_TAPCELL_ROW_21_2_2264
*2573 TAP_TAPCELL_ROW_21_2_2265
*2574 TAP_TAPCELL_ROW_21_2_2266
*2575 TAP_TAPCELL_ROW_21_2_2267
*2576 TAP_TAPCELL_ROW_21_2_2268
*2577 TAP_TAPCELL_ROW_21_2_2269
*2578 TAP_TAPCELL_ROW_21_2_2270
*2579 TAP_TAPCELL_ROW_21_2_2271
*595 TAP_TAPCELL_ROW_22_1_287
*2580 TAP_TAPCELL_ROW_22_2_2272
*2581 TAP_TAPCELL_ROW_22_2_2273
*2582 TAP_TAPCELL_ROW_22_2_2274
*2583 TAP_TAPCELL_ROW_22_2_2275
*2584 TAP_TAPCELL_ROW_22_2_2276
*2585 TAP_TAPCELL_ROW_22_2_2277
*2586 TAP_TAPCELL_ROW_22_2_2278
*2587 TAP_TAPCELL_ROW_22_2_2279
*2588 TAP_TAPCELL_ROW_22_2_2280
*2589 TAP_TAPCELL_ROW_22_2_2281
*2590 TAP_TAPCELL_ROW_23_2_2282
*2591 TAP_TAPCELL_ROW_23_2_2283
*2592 TAP_TAPCELL_ROW_23_2_2284
*2593 TAP_TAPCELL_ROW_23_2_2285
*2594 TAP_TAPCELL_ROW_23_2_2286
*2595 TAP_TAPCELL_ROW_23_2_2287
*2596 TAP_TAPCELL_ROW_23_2_2288
*2597 TAP_TAPCELL_ROW_23_2_2289
*2598 TAP_TAPCELL_ROW_23_2_2290
*596 TAP_TAPCELL_ROW_24_1_288
*2599 TAP_TAPCELL_ROW_24_2_2291
*2600 TAP_TAPCELL_ROW_24_2_2292
*2601 TAP_TAPCELL_ROW_24_2_2293
*2602 TAP_TAPCELL_ROW_24_2_2294
*2603 TAP_TAPCELL_ROW_24_2_2295
*2604 TAP_TAPCELL_ROW_24_2_2296
*2605 TAP_TAPCELL_ROW_24_2_2297
*2606 TAP_TAPCELL_ROW_24_2_2298
*2607 TAP_TAPCELL_ROW_24_2_2299
*2608 TAP_TAPCELL_ROW_24_2_2300
*2609 TAP_TAPCELL_ROW_25_2_2301
*2610 TAP_TAPCELL_ROW_25_2_2302
*2611 TAP_TAPCELL_ROW_25_2_2303
*2612 TAP_TAPCELL_ROW_25_2_2304
*2613 TAP_TAPCELL_ROW_25_2_2305
*2614 TAP_TAPCELL_ROW_25_2_2306
*2615 TAP_TAPCELL_ROW_25_2_2307
*2616 TAP_TAPCELL_ROW_25_2_2308
*2617 TAP_TAPCELL_ROW_25_2_2309
*597 TAP_TAPCELL_ROW_26_1_289
*2618 TAP_TAPCELL_ROW_26_2_2310
*2619 TAP_TAPCELL_ROW_26_2_2311
*2620 TAP_TAPCELL_ROW_26_2_2312
*2621 TAP_TAPCELL_ROW_26_2_2313
*2622 TAP_TAPCELL_ROW_26_2_2314
*2623 TAP_TAPCELL_ROW_26_2_2315
*2624 TAP_TAPCELL_ROW_26_2_2316
*2625 TAP_TAPCELL_ROW_26_2_2317
*2626 TAP_TAPCELL_ROW_26_2_2318
*2627 TAP_TAPCELL_ROW_26_2_2319
*2628 TAP_TAPCELL_ROW_27_2_2320
*2629 TAP_TAPCELL_ROW_27_2_2321
*2630 TAP_TAPCELL_ROW_27_2_2322
*2631 TAP_TAPCELL_ROW_27_2_2323
*2632 TAP_TAPCELL_ROW_27_2_2324
*2633 TAP_TAPCELL_ROW_27_2_2325
*2634 TAP_TAPCELL_ROW_27_2_2326
*2635 TAP_TAPCELL_ROW_27_2_2327
*2636 TAP_TAPCELL_ROW_27_2_2328
*598 TAP_TAPCELL_ROW_28_1_290
*2637 TAP_TAPCELL_ROW_28_2_2329
*2638 TAP_TAPCELL_ROW_28_2_2330
*2639 TAP_TAPCELL_ROW_28_2_2331
*2640 TAP_TAPCELL_ROW_28_2_2332
*2641 TAP_TAPCELL_ROW_28_2_2333
*2642 TAP_TAPCELL_ROW_28_2_2334
*2643 TAP_TAPCELL_ROW_28_2_2335
*2644 TAP_TAPCELL_ROW_28_2_2336
*2645 TAP_TAPCELL_ROW_28_2_2337
*2646 TAP_TAPCELL_ROW_28_2_2338
*2647 TAP_TAPCELL_ROW_29_2_2339
*2648 TAP_TAPCELL_ROW_29_2_2340
*2649 TAP_TAPCELL_ROW_29_2_2341
*2650 TAP_TAPCELL_ROW_29_2_2342
*2651 TAP_TAPCELL_ROW_29_2_2343
*2652 TAP_TAPCELL_ROW_29_2_2344
*2653 TAP_TAPCELL_ROW_29_2_2345
*2654 TAP_TAPCELL_ROW_29_2_2346
*2655 TAP_TAPCELL_ROW_29_2_2347
*413 TAP_TAPCELL_ROW_2_105
*414 TAP_TAPCELL_ROW_2_106
*415 TAP_TAPCELL_ROW_2_107
*416 TAP_TAPCELL_ROW_2_108
*417 TAP_TAPCELL_ROW_2_109
*418 TAP_TAPCELL_ROW_2_110
*419 TAP_TAPCELL_ROW_2_111
*420 TAP_TAPCELL_ROW_2_112
*421 TAP_TAPCELL_ROW_2_113
*422 TAP_TAPCELL_ROW_2_114
*423 TAP_TAPCELL_ROW_2_115
*424 TAP_TAPCELL_ROW_2_116
*425 TAP_TAPCELL_ROW_2_117
*426 TAP_TAPCELL_ROW_2_118
*427 TAP_TAPCELL_ROW_2_119
*428 TAP_TAPCELL_ROW_2_120
*429 TAP_TAPCELL_ROW_2_121
*430 TAP_TAPCELL_ROW_2_122
*431 TAP_TAPCELL_ROW_2_123
*432 TAP_TAPCELL_ROW_2_124
*433 TAP_TAPCELL_ROW_2_125
*434 TAP_TAPCELL_ROW_2_126
*435 TAP_TAPCELL_ROW_2_127
*436 TAP_TAPCELL_ROW_2_128
*437 TAP_TAPCELL_ROW_2_129
*438 TAP_TAPCELL_ROW_2_130
*439 TAP_TAPCELL_ROW_2_131
*440 TAP_TAPCELL_ROW_2_132
*441 TAP_TAPCELL_ROW_2_133
*442 TAP_TAPCELL_ROW_2_134
*443 TAP_TAPCELL_ROW_2_135
*444 TAP_TAPCELL_ROW_2_136
*445 TAP_TAPCELL_ROW_2_137
*446 TAP_TAPCELL_ROW_2_138
*447 TAP_TAPCELL_ROW_2_139
*599 TAP_TAPCELL_ROW_30_1_291
*2656 TAP_TAPCELL_ROW_30_2_2348
*2657 TAP_TAPCELL_ROW_30_2_2349
*2658 TAP_TAPCELL_ROW_30_2_2350
*2659 TAP_TAPCELL_ROW_30_2_2351
*2660 TAP_TAPCELL_ROW_30_2_2352
*2661 TAP_TAPCELL_ROW_30_2_2353
*2662 TAP_TAPCELL_ROW_30_2_2354
*2663 TAP_TAPCELL_ROW_30_2_2355
*2664 TAP_TAPCELL_ROW_30_2_2356
*2665 TAP_TAPCELL_ROW_30_2_2357
*2666 TAP_TAPCELL_ROW_31_2_2358
*2667 TAP_TAPCELL_ROW_31_2_2359
*2668 TAP_TAPCELL_ROW_31_2_2360
*2669 TAP_TAPCELL_ROW_31_2_2361
*2670 TAP_TAPCELL_ROW_31_2_2362
*2671 TAP_TAPCELL_ROW_31_2_2363
*2672 TAP_TAPCELL_ROW_31_2_2364
*2673 TAP_TAPCELL_ROW_31_2_2365
*2674 TAP_TAPCELL_ROW_31_2_2366
*600 TAP_TAPCELL_ROW_32_1_292
*2675 TAP_TAPCELL_ROW_32_2_2367
*2676 TAP_TAPCELL_ROW_32_2_2368
*2677 TAP_TAPCELL_ROW_32_2_2369
*2678 TAP_TAPCELL_ROW_32_2_2370
*2679 TAP_TAPCELL_ROW_32_2_2371
*2680 TAP_TAPCELL_ROW_32_2_2372
*2681 TAP_TAPCELL_ROW_32_2_2373
*2682 TAP_TAPCELL_ROW_32_2_2374
*2683 TAP_TAPCELL_ROW_32_2_2375
*2684 TAP_TAPCELL_ROW_32_2_2376
*2685 TAP_TAPCELL_ROW_33_2_2377
*2686 TAP_TAPCELL_ROW_33_2_2378
*2687 TAP_TAPCELL_ROW_33_2_2379
*2688 TAP_TAPCELL_ROW_33_2_2380
*2689 TAP_TAPCELL_ROW_33_2_2381
*2690 TAP_TAPCELL_ROW_33_2_2382
*2691 TAP_TAPCELL_ROW_33_2_2383
*2692 TAP_TAPCELL_ROW_33_2_2384
*2693 TAP_TAPCELL_ROW_33_2_2385
*601 TAP_TAPCELL_ROW_34_1_293
*2694 TAP_TAPCELL_ROW_34_2_2386
*2695 TAP_TAPCELL_ROW_34_2_2387
*2696 TAP_TAPCELL_ROW_34_2_2388
*2697 TAP_TAPCELL_ROW_34_2_2389
*2698 TAP_TAPCELL_ROW_34_2_2390
*2699 TAP_TAPCELL_ROW_34_2_2391
*2700 TAP_TAPCELL_ROW_34_2_2392
*2701 TAP_TAPCELL_ROW_34_2_2393
*2702 TAP_TAPCELL_ROW_34_2_2394
*2703 TAP_TAPCELL_ROW_34_2_2395
*2704 TAP_TAPCELL_ROW_35_2_2396
*2705 TAP_TAPCELL_ROW_35_2_2397
*2706 TAP_TAPCELL_ROW_35_2_2398
*2707 TAP_TAPCELL_ROW_35_2_2399
*2708 TAP_TAPCELL_ROW_35_2_2400
*2709 TAP_TAPCELL_ROW_35_2_2401
*2710 TAP_TAPCELL_ROW_35_2_2402
*2711 TAP_TAPCELL_ROW_35_2_2403
*2712 TAP_TAPCELL_ROW_35_2_2404
*602 TAP_TAPCELL_ROW_36_1_294
*2713 TAP_TAPCELL_ROW_36_2_2405
*2714 TAP_TAPCELL_ROW_36_2_2406
*2715 TAP_TAPCELL_ROW_36_2_2407
*2716 TAP_TAPCELL_ROW_36_2_2408
*2717 TAP_TAPCELL_ROW_36_2_2409
*2718 TAP_TAPCELL_ROW_36_2_2410
*2719 TAP_TAPCELL_ROW_36_2_2411
*2720 TAP_TAPCELL_ROW_36_2_2412
*2721 TAP_TAPCELL_ROW_36_2_2413
*2722 TAP_TAPCELL_ROW_36_2_2414
*2723 TAP_TAPCELL_ROW_37_2_2415
*2724 TAP_TAPCELL_ROW_37_2_2416
*2725 TAP_TAPCELL_ROW_37_2_2417
*2726 TAP_TAPCELL_ROW_37_2_2418
*2727 TAP_TAPCELL_ROW_37_2_2419
*2728 TAP_TAPCELL_ROW_37_2_2420
*2729 TAP_TAPCELL_ROW_37_2_2421
*2730 TAP_TAPCELL_ROW_37_2_2422
*2731 TAP_TAPCELL_ROW_37_2_2423
*603 TAP_TAPCELL_ROW_38_1_295
*2732 TAP_TAPCELL_ROW_38_2_2424
*2733 TAP_TAPCELL_ROW_38_2_2425
*2734 TAP_TAPCELL_ROW_38_2_2426
*2735 TAP_TAPCELL_ROW_38_2_2427
*2736 TAP_TAPCELL_ROW_38_2_2428
*2737 TAP_TAPCELL_ROW_38_2_2429
*2738 TAP_TAPCELL_ROW_38_2_2430
*2739 TAP_TAPCELL_ROW_38_2_2431
*2740 TAP_TAPCELL_ROW_38_2_2432
*2741 TAP_TAPCELL_ROW_38_2_2433
*2742 TAP_TAPCELL_ROW_39_2_2434
*2743 TAP_TAPCELL_ROW_39_2_2435
*2744 TAP_TAPCELL_ROW_39_2_2436
*2745 TAP_TAPCELL_ROW_39_2_2437
*2746 TAP_TAPCELL_ROW_39_2_2438
*2747 TAP_TAPCELL_ROW_39_2_2439
*2748 TAP_TAPCELL_ROW_39_2_2440
*2749 TAP_TAPCELL_ROW_39_2_2441
*2750 TAP_TAPCELL_ROW_39_2_2442
*448 TAP_TAPCELL_ROW_3_140
*449 TAP_TAPCELL_ROW_3_141
*450 TAP_TAPCELL_ROW_3_142
*451 TAP_TAPCELL_ROW_3_143
*452 TAP_TAPCELL_ROW_3_144
*453 TAP_TAPCELL_ROW_3_145
*454 TAP_TAPCELL_ROW_3_146
*455 TAP_TAPCELL_ROW_3_147
*456 TAP_TAPCELL_ROW_3_148
*457 TAP_TAPCELL_ROW_3_149
*458 TAP_TAPCELL_ROW_3_150
*459 TAP_TAPCELL_ROW_3_151
*460 TAP_TAPCELL_ROW_3_152
*461 TAP_TAPCELL_ROW_3_153
*462 TAP_TAPCELL_ROW_3_154
*463 TAP_TAPCELL_ROW_3_155
*464 TAP_TAPCELL_ROW_3_156
*465 TAP_TAPCELL_ROW_3_157
*466 TAP_TAPCELL_ROW_3_158
*467 TAP_TAPCELL_ROW_3_159
*468 TAP_TAPCELL_ROW_3_160
*469 TAP_TAPCELL_ROW_3_161
*470 TAP_TAPCELL_ROW_3_162
*471 TAP_TAPCELL_ROW_3_163
*472 TAP_TAPCELL_ROW_3_164
*473 TAP_TAPCELL_ROW_3_165
*474 TAP_TAPCELL_ROW_3_166
*475 TAP_TAPCELL_ROW_3_167
*476 TAP_TAPCELL_ROW_3_168
*477 TAP_TAPCELL_ROW_3_169
*478 TAP_TAPCELL_ROW_3_170
*479 TAP_TAPCELL_ROW_3_171
*480 TAP_TAPCELL_ROW_3_172
*481 TAP_TAPCELL_ROW_3_173
*482 TAP_TAPCELL_ROW_3_174
*604 TAP_TAPCELL_ROW_40_1_296
*2751 TAP_TAPCELL_ROW_40_2_2443
*2752 TAP_TAPCELL_ROW_40_2_2444
*2753 TAP_TAPCELL_ROW_40_2_2445
*2754 TAP_TAPCELL_ROW_40_2_2446
*2755 TAP_TAPCELL_ROW_40_2_2447
*2756 TAP_TAPCELL_ROW_40_2_2448
*2757 TAP_TAPCELL_ROW_40_2_2449
*2758 TAP_TAPCELL_ROW_40_2_2450
*2759 TAP_TAPCELL_ROW_40_2_2451
*2760 TAP_TAPCELL_ROW_40_2_2452
*2761 TAP_TAPCELL_ROW_41_2_2453
*2762 TAP_TAPCELL_ROW_41_2_2454
*2763 TAP_TAPCELL_ROW_41_2_2455
*2764 TAP_TAPCELL_ROW_41_2_2456
*2765 TAP_TAPCELL_ROW_41_2_2457
*2766 TAP_TAPCELL_ROW_41_2_2458
*2767 TAP_TAPCELL_ROW_41_2_2459
*2768 TAP_TAPCELL_ROW_41_2_2460
*2769 TAP_TAPCELL_ROW_41_2_2461
*605 TAP_TAPCELL_ROW_42_1_297
*2770 TAP_TAPCELL_ROW_42_2_2462
*2771 TAP_TAPCELL_ROW_42_2_2463
*2772 TAP_TAPCELL_ROW_42_2_2464
*2773 TAP_TAPCELL_ROW_42_2_2465
*2774 TAP_TAPCELL_ROW_42_2_2466
*2775 TAP_TAPCELL_ROW_42_2_2467
*2776 TAP_TAPCELL_ROW_42_2_2468
*2777 TAP_TAPCELL_ROW_42_2_2469
*2778 TAP_TAPCELL_ROW_42_2_2470
*2779 TAP_TAPCELL_ROW_42_2_2471
*2780 TAP_TAPCELL_ROW_43_2_2472
*2781 TAP_TAPCELL_ROW_43_2_2473
*2782 TAP_TAPCELL_ROW_43_2_2474
*2783 TAP_TAPCELL_ROW_43_2_2475
*2784 TAP_TAPCELL_ROW_43_2_2476
*2785 TAP_TAPCELL_ROW_43_2_2477
*2786 TAP_TAPCELL_ROW_43_2_2478
*2787 TAP_TAPCELL_ROW_43_2_2479
*2788 TAP_TAPCELL_ROW_43_2_2480
*606 TAP_TAPCELL_ROW_44_1_298
*2789 TAP_TAPCELL_ROW_44_2_2481
*2790 TAP_TAPCELL_ROW_44_2_2482
*2791 TAP_TAPCELL_ROW_44_2_2483
*2792 TAP_TAPCELL_ROW_44_2_2484
*2793 TAP_TAPCELL_ROW_44_2_2485
*2794 TAP_TAPCELL_ROW_44_2_2486
*2795 TAP_TAPCELL_ROW_44_2_2487
*2796 TAP_TAPCELL_ROW_44_2_2488
*2797 TAP_TAPCELL_ROW_44_2_2489
*2798 TAP_TAPCELL_ROW_44_2_2490
*2799 TAP_TAPCELL_ROW_45_2_2491
*2800 TAP_TAPCELL_ROW_45_2_2492
*2801 TAP_TAPCELL_ROW_45_2_2493
*2802 TAP_TAPCELL_ROW_45_2_2494
*2803 TAP_TAPCELL_ROW_45_2_2495
*2804 TAP_TAPCELL_ROW_45_2_2496
*2805 TAP_TAPCELL_ROW_45_2_2497
*2806 TAP_TAPCELL_ROW_45_2_2498
*2807 TAP_TAPCELL_ROW_45_2_2499
*607 TAP_TAPCELL_ROW_46_1_299
*2808 TAP_TAPCELL_ROW_46_2_2500
*2809 TAP_TAPCELL_ROW_46_2_2501
*2810 TAP_TAPCELL_ROW_46_2_2502
*2811 TAP_TAPCELL_ROW_46_2_2503
*2812 TAP_TAPCELL_ROW_46_2_2504
*2813 TAP_TAPCELL_ROW_46_2_2505
*2814 TAP_TAPCELL_ROW_46_2_2506
*2815 TAP_TAPCELL_ROW_46_2_2507
*2816 TAP_TAPCELL_ROW_46_2_2508
*2817 TAP_TAPCELL_ROW_46_2_2509
*2818 TAP_TAPCELL_ROW_47_2_2510
*2819 TAP_TAPCELL_ROW_47_2_2511
*2820 TAP_TAPCELL_ROW_47_2_2512
*2821 TAP_TAPCELL_ROW_47_2_2513
*2822 TAP_TAPCELL_ROW_47_2_2514
*2823 TAP_TAPCELL_ROW_47_2_2515
*2824 TAP_TAPCELL_ROW_47_2_2516
*2825 TAP_TAPCELL_ROW_47_2_2517
*2826 TAP_TAPCELL_ROW_47_2_2518
*608 TAP_TAPCELL_ROW_48_1_300
*2827 TAP_TAPCELL_ROW_48_2_2519
*2828 TAP_TAPCELL_ROW_48_2_2520
*2829 TAP_TAPCELL_ROW_48_2_2521
*2830 TAP_TAPCELL_ROW_48_2_2522
*2831 TAP_TAPCELL_ROW_48_2_2523
*2832 TAP_TAPCELL_ROW_48_2_2524
*2833 TAP_TAPCELL_ROW_48_2_2525
*2834 TAP_TAPCELL_ROW_48_2_2526
*2835 TAP_TAPCELL_ROW_48_2_2527
*2836 TAP_TAPCELL_ROW_48_2_2528
*2837 TAP_TAPCELL_ROW_49_2_2529
*2838 TAP_TAPCELL_ROW_49_2_2530
*2839 TAP_TAPCELL_ROW_49_2_2531
*2840 TAP_TAPCELL_ROW_49_2_2532
*2841 TAP_TAPCELL_ROW_49_2_2533
*2842 TAP_TAPCELL_ROW_49_2_2534
*2843 TAP_TAPCELL_ROW_49_2_2535
*2844 TAP_TAPCELL_ROW_49_2_2536
*2845 TAP_TAPCELL_ROW_49_2_2537
*483 TAP_TAPCELL_ROW_4_175
*484 TAP_TAPCELL_ROW_4_176
*485 TAP_TAPCELL_ROW_4_177
*486 TAP_TAPCELL_ROW_4_178
*487 TAP_TAPCELL_ROW_4_179
*488 TAP_TAPCELL_ROW_4_180
*489 TAP_TAPCELL_ROW_4_181
*490 TAP_TAPCELL_ROW_4_182
*491 TAP_TAPCELL_ROW_4_183
*492 TAP_TAPCELL_ROW_4_184
*493 TAP_TAPCELL_ROW_4_185
*494 TAP_TAPCELL_ROW_4_186
*495 TAP_TAPCELL_ROW_4_187
*496 TAP_TAPCELL_ROW_4_188
*497 TAP_TAPCELL_ROW_4_189
*498 TAP_TAPCELL_ROW_4_190
*499 TAP_TAPCELL_ROW_4_191
*500 TAP_TAPCELL_ROW_4_192
*501 TAP_TAPCELL_ROW_4_193
*502 TAP_TAPCELL_ROW_4_194
*503 TAP_TAPCELL_ROW_4_195
*504 TAP_TAPCELL_ROW_4_196
*505 TAP_TAPCELL_ROW_4_197
*506 TAP_TAPCELL_ROW_4_198
*507 TAP_TAPCELL_ROW_4_199
*508 TAP_TAPCELL_ROW_4_200
*509 TAP_TAPCELL_ROW_4_201
*510 TAP_TAPCELL_ROW_4_202
*511 TAP_TAPCELL_ROW_4_203
*512 TAP_TAPCELL_ROW_4_204
*513 TAP_TAPCELL_ROW_4_205
*514 TAP_TAPCELL_ROW_4_206
*515 TAP_TAPCELL_ROW_4_207
*516 TAP_TAPCELL_ROW_4_208
*517 TAP_TAPCELL_ROW_4_209
*609 TAP_TAPCELL_ROW_50_1_301
*2846 TAP_TAPCELL_ROW_50_2_2538
*2847 TAP_TAPCELL_ROW_50_2_2539
*2848 TAP_TAPCELL_ROW_50_2_2540
*2849 TAP_TAPCELL_ROW_50_2_2541
*2850 TAP_TAPCELL_ROW_50_2_2542
*2851 TAP_TAPCELL_ROW_50_2_2543
*2852 TAP_TAPCELL_ROW_50_2_2544
*2853 TAP_TAPCELL_ROW_50_2_2545
*2854 TAP_TAPCELL_ROW_50_2_2546
*2855 TAP_TAPCELL_ROW_50_2_2547
*2856 TAP_TAPCELL_ROW_51_2_2548
*2857 TAP_TAPCELL_ROW_51_2_2549
*2858 TAP_TAPCELL_ROW_51_2_2550
*2859 TAP_TAPCELL_ROW_51_2_2551
*2860 TAP_TAPCELL_ROW_51_2_2552
*2861 TAP_TAPCELL_ROW_51_2_2553
*2862 TAP_TAPCELL_ROW_51_2_2554
*2863 TAP_TAPCELL_ROW_51_2_2555
*2864 TAP_TAPCELL_ROW_51_2_2556
*610 TAP_TAPCELL_ROW_52_1_302
*2865 TAP_TAPCELL_ROW_52_2_2557
*2866 TAP_TAPCELL_ROW_52_2_2558
*2867 TAP_TAPCELL_ROW_52_2_2559
*2868 TAP_TAPCELL_ROW_52_2_2560
*2869 TAP_TAPCELL_ROW_52_2_2561
*2870 TAP_TAPCELL_ROW_52_2_2562
*2871 TAP_TAPCELL_ROW_52_2_2563
*2872 TAP_TAPCELL_ROW_52_2_2564
*2873 TAP_TAPCELL_ROW_52_2_2565
*2874 TAP_TAPCELL_ROW_52_2_2566
*2875 TAP_TAPCELL_ROW_53_2_2567
*2876 TAP_TAPCELL_ROW_53_2_2568
*2877 TAP_TAPCELL_ROW_53_2_2569
*2878 TAP_TAPCELL_ROW_53_2_2570
*2879 TAP_TAPCELL_ROW_53_2_2571
*2880 TAP_TAPCELL_ROW_53_2_2572
*2881 TAP_TAPCELL_ROW_53_2_2573
*2882 TAP_TAPCELL_ROW_53_2_2574
*2883 TAP_TAPCELL_ROW_53_2_2575
*611 TAP_TAPCELL_ROW_54_1_303
*2884 TAP_TAPCELL_ROW_54_2_2576
*2885 TAP_TAPCELL_ROW_54_2_2577
*2886 TAP_TAPCELL_ROW_54_2_2578
*2887 TAP_TAPCELL_ROW_54_2_2579
*2888 TAP_TAPCELL_ROW_54_2_2580
*2889 TAP_TAPCELL_ROW_54_2_2581
*2890 TAP_TAPCELL_ROW_54_2_2582
*2891 TAP_TAPCELL_ROW_54_2_2583
*2892 TAP_TAPCELL_ROW_54_2_2584
*2893 TAP_TAPCELL_ROW_54_2_2585
*2894 TAP_TAPCELL_ROW_55_2_2586
*2895 TAP_TAPCELL_ROW_55_2_2587
*2896 TAP_TAPCELL_ROW_55_2_2588
*2897 TAP_TAPCELL_ROW_55_2_2589
*2898 TAP_TAPCELL_ROW_55_2_2590
*2899 TAP_TAPCELL_ROW_55_2_2591
*2900 TAP_TAPCELL_ROW_55_2_2592
*2901 TAP_TAPCELL_ROW_55_2_2593
*2902 TAP_TAPCELL_ROW_55_2_2594
*612 TAP_TAPCELL_ROW_56_1_304
*2903 TAP_TAPCELL_ROW_56_2_2595
*2904 TAP_TAPCELL_ROW_56_2_2596
*2905 TAP_TAPCELL_ROW_56_2_2597
*2906 TAP_TAPCELL_ROW_56_2_2598
*2907 TAP_TAPCELL_ROW_56_2_2599
*2908 TAP_TAPCELL_ROW_56_2_2600
*2909 TAP_TAPCELL_ROW_56_2_2601
*2910 TAP_TAPCELL_ROW_56_2_2602
*2911 TAP_TAPCELL_ROW_56_2_2603
*2912 TAP_TAPCELL_ROW_56_2_2604
*2913 TAP_TAPCELL_ROW_57_2_2605
*2914 TAP_TAPCELL_ROW_57_2_2606
*2915 TAP_TAPCELL_ROW_57_2_2607
*2916 TAP_TAPCELL_ROW_57_2_2608
*2917 TAP_TAPCELL_ROW_57_2_2609
*2918 TAP_TAPCELL_ROW_57_2_2610
*2919 TAP_TAPCELL_ROW_57_2_2611
*2920 TAP_TAPCELL_ROW_57_2_2612
*2921 TAP_TAPCELL_ROW_57_2_2613
*613 TAP_TAPCELL_ROW_58_1_305
*2922 TAP_TAPCELL_ROW_58_2_2614
*2923 TAP_TAPCELL_ROW_58_2_2615
*2924 TAP_TAPCELL_ROW_58_2_2616
*2925 TAP_TAPCELL_ROW_58_2_2617
*2926 TAP_TAPCELL_ROW_58_2_2618
*2927 TAP_TAPCELL_ROW_58_2_2619
*2928 TAP_TAPCELL_ROW_58_2_2620
*2929 TAP_TAPCELL_ROW_58_2_2621
*2930 TAP_TAPCELL_ROW_58_2_2622
*2931 TAP_TAPCELL_ROW_58_2_2623
*2932 TAP_TAPCELL_ROW_59_2_2624
*2933 TAP_TAPCELL_ROW_59_2_2625
*2934 TAP_TAPCELL_ROW_59_2_2626
*2935 TAP_TAPCELL_ROW_59_2_2627
*2936 TAP_TAPCELL_ROW_59_2_2628
*2937 TAP_TAPCELL_ROW_59_2_2629
*2938 TAP_TAPCELL_ROW_59_2_2630
*2939 TAP_TAPCELL_ROW_59_2_2631
*2940 TAP_TAPCELL_ROW_59_2_2632
*518 TAP_TAPCELL_ROW_5_210
*519 TAP_TAPCELL_ROW_5_211
*520 TAP_TAPCELL_ROW_5_212
*521 TAP_TAPCELL_ROW_5_213
*522 TAP_TAPCELL_ROW_5_214
*523 TAP_TAPCELL_ROW_5_215
*524 TAP_TAPCELL_ROW_5_216
*525 TAP_TAPCELL_ROW_5_217
*526 TAP_TAPCELL_ROW_5_218
*527 TAP_TAPCELL_ROW_5_219
*528 TAP_TAPCELL_ROW_5_220
*529 TAP_TAPCELL_ROW_5_221
*530 TAP_TAPCELL_ROW_5_222
*531 TAP_TAPCELL_ROW_5_223
*532 TAP_TAPCELL_ROW_5_224
*533 TAP_TAPCELL_ROW_5_225
*534 TAP_TAPCELL_ROW_5_226
*535 TAP_TAPCELL_ROW_5_227
*536 TAP_TAPCELL_ROW_5_228
*537 TAP_TAPCELL_ROW_5_229
*538 TAP_TAPCELL_ROW_5_230
*539 TAP_TAPCELL_ROW_5_231
*540 TAP_TAPCELL_ROW_5_232
*541 TAP_TAPCELL_ROW_5_233
*542 TAP_TAPCELL_ROW_5_234
*543 TAP_TAPCELL_ROW_5_235
*544 TAP_TAPCELL_ROW_5_236
*545 TAP_TAPCELL_ROW_5_237
*546 TAP_TAPCELL_ROW_5_238
*547 TAP_TAPCELL_ROW_5_239
*548 TAP_TAPCELL_ROW_5_240
*549 TAP_TAPCELL_ROW_5_241
*550 TAP_TAPCELL_ROW_5_242
*551 TAP_TAPCELL_ROW_5_243
*552 TAP_TAPCELL_ROW_5_244
*553 TAP_TAPCELL_ROW_5_245
*554 TAP_TAPCELL_ROW_5_246
*555 TAP_TAPCELL_ROW_5_247
*556 TAP_TAPCELL_ROW_5_248
*557 TAP_TAPCELL_ROW_5_249
*558 TAP_TAPCELL_ROW_5_250
*559 TAP_TAPCELL_ROW_5_251
*560 TAP_TAPCELL_ROW_5_252
*561 TAP_TAPCELL_ROW_5_253
*562 TAP_TAPCELL_ROW_5_254
*563 TAP_TAPCELL_ROW_5_255
*564 TAP_TAPCELL_ROW_5_256
*565 TAP_TAPCELL_ROW_5_257
*566 TAP_TAPCELL_ROW_5_258
*567 TAP_TAPCELL_ROW_5_259
*568 TAP_TAPCELL_ROW_5_260
*569 TAP_TAPCELL_ROW_5_261
*570 TAP_TAPCELL_ROW_5_262
*571 TAP_TAPCELL_ROW_5_263
*572 TAP_TAPCELL_ROW_5_264
*573 TAP_TAPCELL_ROW_5_265
*574 TAP_TAPCELL_ROW_5_266
*575 TAP_TAPCELL_ROW_5_267
*576 TAP_TAPCELL_ROW_5_268
*577 TAP_TAPCELL_ROW_5_269
*578 TAP_TAPCELL_ROW_5_270
*579 TAP_TAPCELL_ROW_5_271
*580 TAP_TAPCELL_ROW_5_272
*581 TAP_TAPCELL_ROW_5_273
*582 TAP_TAPCELL_ROW_5_274
*583 TAP_TAPCELL_ROW_5_275
*584 TAP_TAPCELL_ROW_5_276
*585 TAP_TAPCELL_ROW_5_277
*586 TAP_TAPCELL_ROW_5_278
*587 TAP_TAPCELL_ROW_5_279
*614 TAP_TAPCELL_ROW_60_1_306
*2941 TAP_TAPCELL_ROW_60_2_2633
*2942 TAP_TAPCELL_ROW_60_2_2634
*2943 TAP_TAPCELL_ROW_60_2_2635
*2944 TAP_TAPCELL_ROW_60_2_2636
*2945 TAP_TAPCELL_ROW_60_2_2637
*2946 TAP_TAPCELL_ROW_60_2_2638
*2947 TAP_TAPCELL_ROW_60_2_2639
*2948 TAP_TAPCELL_ROW_60_2_2640
*2949 TAP_TAPCELL_ROW_60_2_2641
*2950 TAP_TAPCELL_ROW_60_2_2642
*2951 TAP_TAPCELL_ROW_61_2_2643
*2952 TAP_TAPCELL_ROW_61_2_2644
*2953 TAP_TAPCELL_ROW_61_2_2645
*2954 TAP_TAPCELL_ROW_61_2_2646
*2955 TAP_TAPCELL_ROW_61_2_2647
*2956 TAP_TAPCELL_ROW_61_2_2648
*2957 TAP_TAPCELL_ROW_61_2_2649
*2958 TAP_TAPCELL_ROW_61_2_2650
*2959 TAP_TAPCELL_ROW_61_2_2651
*615 TAP_TAPCELL_ROW_62_1_307
*2960 TAP_TAPCELL_ROW_62_2_2652
*2961 TAP_TAPCELL_ROW_62_2_2653
*2962 TAP_TAPCELL_ROW_62_2_2654
*2963 TAP_TAPCELL_ROW_62_2_2655
*2964 TAP_TAPCELL_ROW_62_2_2656
*2965 TAP_TAPCELL_ROW_62_2_2657
*2966 TAP_TAPCELL_ROW_62_2_2658
*2967 TAP_TAPCELL_ROW_62_2_2659
*2968 TAP_TAPCELL_ROW_62_2_2660
*2969 TAP_TAPCELL_ROW_62_2_2661
*2970 TAP_TAPCELL_ROW_63_2_2662
*2971 TAP_TAPCELL_ROW_63_2_2663
*2972 TAP_TAPCELL_ROW_63_2_2664
*2973 TAP_TAPCELL_ROW_63_2_2665
*2974 TAP_TAPCELL_ROW_63_2_2666
*2975 TAP_TAPCELL_ROW_63_2_2667
*2976 TAP_TAPCELL_ROW_63_2_2668
*2977 TAP_TAPCELL_ROW_63_2_2669
*2978 TAP_TAPCELL_ROW_63_2_2670
*616 TAP_TAPCELL_ROW_64_1_308
*2979 TAP_TAPCELL_ROW_64_2_2671
*2980 TAP_TAPCELL_ROW_64_2_2672
*2981 TAP_TAPCELL_ROW_64_2_2673
*2982 TAP_TAPCELL_ROW_64_2_2674
*2983 TAP_TAPCELL_ROW_64_2_2675
*2984 TAP_TAPCELL_ROW_64_2_2676
*2985 TAP_TAPCELL_ROW_64_2_2677
*2986 TAP_TAPCELL_ROW_64_2_2678
*2987 TAP_TAPCELL_ROW_64_2_2679
*2988 TAP_TAPCELL_ROW_64_2_2680
*2989 TAP_TAPCELL_ROW_65_2_2681
*2990 TAP_TAPCELL_ROW_65_2_2682
*2991 TAP_TAPCELL_ROW_65_2_2683
*2992 TAP_TAPCELL_ROW_65_2_2684
*2993 TAP_TAPCELL_ROW_65_2_2685
*2994 TAP_TAPCELL_ROW_65_2_2686
*2995 TAP_TAPCELL_ROW_65_2_2687
*2996 TAP_TAPCELL_ROW_65_2_2688
*2997 TAP_TAPCELL_ROW_65_2_2689
*617 TAP_TAPCELL_ROW_66_1_309
*2998 TAP_TAPCELL_ROW_66_2_2690
*2999 TAP_TAPCELL_ROW_66_2_2691
*3000 TAP_TAPCELL_ROW_66_2_2692
*3001 TAP_TAPCELL_ROW_66_2_2693
*3002 TAP_TAPCELL_ROW_66_2_2694
*3003 TAP_TAPCELL_ROW_66_2_2695
*3004 TAP_TAPCELL_ROW_66_2_2696
*3005 TAP_TAPCELL_ROW_66_2_2697
*3006 TAP_TAPCELL_ROW_66_2_2698
*3007 TAP_TAPCELL_ROW_66_2_2699
*3008 TAP_TAPCELL_ROW_67_2_2700
*3009 TAP_TAPCELL_ROW_67_2_2701
*3010 TAP_TAPCELL_ROW_67_2_2702
*3011 TAP_TAPCELL_ROW_67_2_2703
*3012 TAP_TAPCELL_ROW_67_2_2704
*3013 TAP_TAPCELL_ROW_67_2_2705
*3014 TAP_TAPCELL_ROW_67_2_2706
*3015 TAP_TAPCELL_ROW_67_2_2707
*3016 TAP_TAPCELL_ROW_67_2_2708
*618 TAP_TAPCELL_ROW_68_1_310
*3017 TAP_TAPCELL_ROW_68_2_2709
*3018 TAP_TAPCELL_ROW_68_2_2710
*3019 TAP_TAPCELL_ROW_68_2_2711
*3020 TAP_TAPCELL_ROW_68_2_2712
*3021 TAP_TAPCELL_ROW_68_2_2713
*3022 TAP_TAPCELL_ROW_68_2_2714
*3023 TAP_TAPCELL_ROW_68_2_2715
*3024 TAP_TAPCELL_ROW_68_2_2716
*3025 TAP_TAPCELL_ROW_68_2_2717
*3026 TAP_TAPCELL_ROW_68_2_2718
*3027 TAP_TAPCELL_ROW_69_2_2719
*3028 TAP_TAPCELL_ROW_69_2_2720
*3029 TAP_TAPCELL_ROW_69_2_2721
*3030 TAP_TAPCELL_ROW_69_2_2722
*3031 TAP_TAPCELL_ROW_69_2_2723
*3032 TAP_TAPCELL_ROW_69_2_2724
*3033 TAP_TAPCELL_ROW_69_2_2725
*3034 TAP_TAPCELL_ROW_69_2_2726
*3035 TAP_TAPCELL_ROW_69_2_2727
*2427 TAP_TAPCELL_ROW_6_1_2119
*2428 TAP_TAPCELL_ROW_6_2_2120
*2429 TAP_TAPCELL_ROW_6_2_2121
*2430 TAP_TAPCELL_ROW_6_2_2122
*2431 TAP_TAPCELL_ROW_6_2_2123
*2432 TAP_TAPCELL_ROW_6_2_2124
*2433 TAP_TAPCELL_ROW_6_2_2125
*2434 TAP_TAPCELL_ROW_6_2_2126
*2435 TAP_TAPCELL_ROW_6_2_2127
*2436 TAP_TAPCELL_ROW_6_2_2128
*2437 TAP_TAPCELL_ROW_6_2_2129
*619 TAP_TAPCELL_ROW_70_1_311
*3036 TAP_TAPCELL_ROW_70_2_2728
*3037 TAP_TAPCELL_ROW_70_2_2729
*3038 TAP_TAPCELL_ROW_70_2_2730
*3039 TAP_TAPCELL_ROW_70_2_2731
*3040 TAP_TAPCELL_ROW_70_2_2732
*3041 TAP_TAPCELL_ROW_70_2_2733
*3042 TAP_TAPCELL_ROW_70_2_2734
*3043 TAP_TAPCELL_ROW_70_2_2735
*3044 TAP_TAPCELL_ROW_70_2_2736
*3045 TAP_TAPCELL_ROW_70_2_2737
*3046 TAP_TAPCELL_ROW_71_2_2738
*3047 TAP_TAPCELL_ROW_71_2_2739
*3048 TAP_TAPCELL_ROW_71_2_2740
*3049 TAP_TAPCELL_ROW_71_2_2741
*3050 TAP_TAPCELL_ROW_71_2_2742
*3051 TAP_TAPCELL_ROW_71_2_2743
*3052 TAP_TAPCELL_ROW_71_2_2744
*3053 TAP_TAPCELL_ROW_71_2_2745
*3054 TAP_TAPCELL_ROW_71_2_2746
*620 TAP_TAPCELL_ROW_72_1_312
*3055 TAP_TAPCELL_ROW_72_2_2747
*3056 TAP_TAPCELL_ROW_72_2_2748
*3057 TAP_TAPCELL_ROW_72_2_2749
*3058 TAP_TAPCELL_ROW_72_2_2750
*3059 TAP_TAPCELL_ROW_72_2_2751
*3060 TAP_TAPCELL_ROW_72_2_2752
*3061 TAP_TAPCELL_ROW_72_2_2753
*3062 TAP_TAPCELL_ROW_72_2_2754
*3063 TAP_TAPCELL_ROW_72_2_2755
*3064 TAP_TAPCELL_ROW_72_2_2756
*3065 TAP_TAPCELL_ROW_73_2_2757
*3066 TAP_TAPCELL_ROW_73_2_2758
*3067 TAP_TAPCELL_ROW_73_2_2759
*3068 TAP_TAPCELL_ROW_73_2_2760
*3069 TAP_TAPCELL_ROW_73_2_2761
*3070 TAP_TAPCELL_ROW_73_2_2762
*3071 TAP_TAPCELL_ROW_73_2_2763
*3072 TAP_TAPCELL_ROW_73_2_2764
*3073 TAP_TAPCELL_ROW_73_2_2765
*621 TAP_TAPCELL_ROW_74_1_313
*3074 TAP_TAPCELL_ROW_74_2_2766
*3075 TAP_TAPCELL_ROW_74_2_2767
*3076 TAP_TAPCELL_ROW_74_2_2768
*3077 TAP_TAPCELL_ROW_74_2_2769
*3078 TAP_TAPCELL_ROW_74_2_2770
*3079 TAP_TAPCELL_ROW_74_2_2771
*3080 TAP_TAPCELL_ROW_74_2_2772
*3081 TAP_TAPCELL_ROW_74_2_2773
*3082 TAP_TAPCELL_ROW_74_2_2774
*3083 TAP_TAPCELL_ROW_74_2_2775
*3084 TAP_TAPCELL_ROW_75_2_2776
*3085 TAP_TAPCELL_ROW_75_2_2777
*3086 TAP_TAPCELL_ROW_75_2_2778
*3087 TAP_TAPCELL_ROW_75_2_2779
*3088 TAP_TAPCELL_ROW_75_2_2780
*3089 TAP_TAPCELL_ROW_75_2_2781
*3090 TAP_TAPCELL_ROW_75_2_2782
*3091 TAP_TAPCELL_ROW_75_2_2783
*3092 TAP_TAPCELL_ROW_75_2_2784
*622 TAP_TAPCELL_ROW_76_1_314
*3093 TAP_TAPCELL_ROW_76_2_2785
*3094 TAP_TAPCELL_ROW_76_2_2786
*3095 TAP_TAPCELL_ROW_76_2_2787
*3096 TAP_TAPCELL_ROW_76_2_2788
*3097 TAP_TAPCELL_ROW_76_2_2789
*3098 TAP_TAPCELL_ROW_76_2_2790
*3099 TAP_TAPCELL_ROW_76_2_2791
*3100 TAP_TAPCELL_ROW_76_2_2792
*3101 TAP_TAPCELL_ROW_76_2_2793
*3102 TAP_TAPCELL_ROW_76_2_2794
*3103 TAP_TAPCELL_ROW_77_2_2795
*3104 TAP_TAPCELL_ROW_77_2_2796
*3105 TAP_TAPCELL_ROW_77_2_2797
*3106 TAP_TAPCELL_ROW_77_2_2798
*3107 TAP_TAPCELL_ROW_77_2_2799
*3108 TAP_TAPCELL_ROW_77_2_2800
*3109 TAP_TAPCELL_ROW_77_2_2801
*3110 TAP_TAPCELL_ROW_77_2_2802
*3111 TAP_TAPCELL_ROW_77_2_2803
*623 TAP_TAPCELL_ROW_78_1_315
*3112 TAP_TAPCELL_ROW_78_2_2804
*3113 TAP_TAPCELL_ROW_78_2_2805
*3114 TAP_TAPCELL_ROW_78_2_2806
*3115 TAP_TAPCELL_ROW_78_2_2807
*3116 TAP_TAPCELL_ROW_78_2_2808
*3117 TAP_TAPCELL_ROW_78_2_2809
*3118 TAP_TAPCELL_ROW_78_2_2810
*3119 TAP_TAPCELL_ROW_78_2_2811
*3120 TAP_TAPCELL_ROW_78_2_2812
*3121 TAP_TAPCELL_ROW_78_2_2813
*3122 TAP_TAPCELL_ROW_79_2_2814
*3123 TAP_TAPCELL_ROW_79_2_2815
*3124 TAP_TAPCELL_ROW_79_2_2816
*3125 TAP_TAPCELL_ROW_79_2_2817
*3126 TAP_TAPCELL_ROW_79_2_2818
*3127 TAP_TAPCELL_ROW_79_2_2819
*3128 TAP_TAPCELL_ROW_79_2_2820
*3129 TAP_TAPCELL_ROW_79_2_2821
*3130 TAP_TAPCELL_ROW_79_2_2822
*2438 TAP_TAPCELL_ROW_7_2_2130
*2439 TAP_TAPCELL_ROW_7_2_2131
*2440 TAP_TAPCELL_ROW_7_2_2132
*2441 TAP_TAPCELL_ROW_7_2_2133
*2442 TAP_TAPCELL_ROW_7_2_2134
*2443 TAP_TAPCELL_ROW_7_2_2135
*2444 TAP_TAPCELL_ROW_7_2_2136
*2445 TAP_TAPCELL_ROW_7_2_2137
*2446 TAP_TAPCELL_ROW_7_2_2138
*624 TAP_TAPCELL_ROW_80_1_316
*3131 TAP_TAPCELL_ROW_80_2_2823
*3132 TAP_TAPCELL_ROW_80_2_2824
*3133 TAP_TAPCELL_ROW_80_2_2825
*3134 TAP_TAPCELL_ROW_80_2_2826
*3135 TAP_TAPCELL_ROW_80_2_2827
*3136 TAP_TAPCELL_ROW_80_2_2828
*3137 TAP_TAPCELL_ROW_80_2_2829
*3138 TAP_TAPCELL_ROW_80_2_2830
*3139 TAP_TAPCELL_ROW_80_2_2831
*3140 TAP_TAPCELL_ROW_80_2_2832
*3141 TAP_TAPCELL_ROW_81_2_2833
*3142 TAP_TAPCELL_ROW_81_2_2834
*3143 TAP_TAPCELL_ROW_81_2_2835
*3144 TAP_TAPCELL_ROW_81_2_2836
*3145 TAP_TAPCELL_ROW_81_2_2837
*3146 TAP_TAPCELL_ROW_81_2_2838
*3147 TAP_TAPCELL_ROW_81_2_2839
*3148 TAP_TAPCELL_ROW_81_2_2840
*3149 TAP_TAPCELL_ROW_81_2_2841
*625 TAP_TAPCELL_ROW_82_1_317
*3150 TAP_TAPCELL_ROW_82_2_2842
*3151 TAP_TAPCELL_ROW_82_2_2843
*3152 TAP_TAPCELL_ROW_82_2_2844
*3153 TAP_TAPCELL_ROW_82_2_2845
*3154 TAP_TAPCELL_ROW_82_2_2846
*3155 TAP_TAPCELL_ROW_82_2_2847
*3156 TAP_TAPCELL_ROW_82_2_2848
*3157 TAP_TAPCELL_ROW_82_2_2849
*3158 TAP_TAPCELL_ROW_82_2_2850
*3159 TAP_TAPCELL_ROW_82_2_2851
*3160 TAP_TAPCELL_ROW_83_2_2852
*3161 TAP_TAPCELL_ROW_83_2_2853
*3162 TAP_TAPCELL_ROW_83_2_2854
*3163 TAP_TAPCELL_ROW_83_2_2855
*3164 TAP_TAPCELL_ROW_83_2_2856
*3165 TAP_TAPCELL_ROW_83_2_2857
*3166 TAP_TAPCELL_ROW_83_2_2858
*3167 TAP_TAPCELL_ROW_83_2_2859
*3168 TAP_TAPCELL_ROW_83_2_2860
*626 TAP_TAPCELL_ROW_84_1_318
*3169 TAP_TAPCELL_ROW_84_2_2861
*3170 TAP_TAPCELL_ROW_84_2_2862
*3171 TAP_TAPCELL_ROW_84_2_2863
*3172 TAP_TAPCELL_ROW_84_2_2864
*3173 TAP_TAPCELL_ROW_84_2_2865
*3174 TAP_TAPCELL_ROW_84_2_2866
*3175 TAP_TAPCELL_ROW_84_2_2867
*3176 TAP_TAPCELL_ROW_84_2_2868
*3177 TAP_TAPCELL_ROW_84_2_2869
*3178 TAP_TAPCELL_ROW_84_2_2870
*3179 TAP_TAPCELL_ROW_85_2_2871
*3180 TAP_TAPCELL_ROW_85_2_2872
*3181 TAP_TAPCELL_ROW_85_2_2873
*3182 TAP_TAPCELL_ROW_85_2_2874
*3183 TAP_TAPCELL_ROW_85_2_2875
*3184 TAP_TAPCELL_ROW_85_2_2876
*3185 TAP_TAPCELL_ROW_85_2_2877
*3186 TAP_TAPCELL_ROW_85_2_2878
*3187 TAP_TAPCELL_ROW_85_2_2879
*627 TAP_TAPCELL_ROW_86_1_319
*3188 TAP_TAPCELL_ROW_86_2_2880
*3189 TAP_TAPCELL_ROW_86_2_2881
*3190 TAP_TAPCELL_ROW_86_2_2882
*3191 TAP_TAPCELL_ROW_86_2_2883
*3192 TAP_TAPCELL_ROW_86_2_2884
*3193 TAP_TAPCELL_ROW_86_2_2885
*3194 TAP_TAPCELL_ROW_86_2_2886
*3195 TAP_TAPCELL_ROW_86_2_2887
*3196 TAP_TAPCELL_ROW_86_2_2888
*3197 TAP_TAPCELL_ROW_86_2_2889
*3198 TAP_TAPCELL_ROW_87_2_2890
*3199 TAP_TAPCELL_ROW_87_2_2891
*3200 TAP_TAPCELL_ROW_87_2_2892
*3201 TAP_TAPCELL_ROW_87_2_2893
*3202 TAP_TAPCELL_ROW_87_2_2894
*3203 TAP_TAPCELL_ROW_87_2_2895
*3204 TAP_TAPCELL_ROW_87_2_2896
*3205 TAP_TAPCELL_ROW_87_2_2897
*3206 TAP_TAPCELL_ROW_87_2_2898
*628 TAP_TAPCELL_ROW_88_1_320
*3207 TAP_TAPCELL_ROW_88_2_2899
*3208 TAP_TAPCELL_ROW_88_2_2900
*3209 TAP_TAPCELL_ROW_88_2_2901
*3210 TAP_TAPCELL_ROW_88_2_2902
*3211 TAP_TAPCELL_ROW_88_2_2903
*3212 TAP_TAPCELL_ROW_88_2_2904
*3213 TAP_TAPCELL_ROW_88_2_2905
*3214 TAP_TAPCELL_ROW_88_2_2906
*3215 TAP_TAPCELL_ROW_88_2_2907
*3216 TAP_TAPCELL_ROW_88_2_2908
*3217 TAP_TAPCELL_ROW_89_2_2909
*3218 TAP_TAPCELL_ROW_89_2_2910
*3219 TAP_TAPCELL_ROW_89_2_2911
*3220 TAP_TAPCELL_ROW_89_2_2912
*3221 TAP_TAPCELL_ROW_89_2_2913
*3222 TAP_TAPCELL_ROW_89_2_2914
*3223 TAP_TAPCELL_ROW_89_2_2915
*3224 TAP_TAPCELL_ROW_89_2_2916
*3225 TAP_TAPCELL_ROW_89_2_2917
*588 TAP_TAPCELL_ROW_8_1_280
*2447 TAP_TAPCELL_ROW_8_2_2139
*2448 TAP_TAPCELL_ROW_8_2_2140
*2449 TAP_TAPCELL_ROW_8_2_2141
*2450 TAP_TAPCELL_ROW_8_2_2142
*2451 TAP_TAPCELL_ROW_8_2_2143
*2452 TAP_TAPCELL_ROW_8_2_2144
*2453 TAP_TAPCELL_ROW_8_2_2145
*2454 TAP_TAPCELL_ROW_8_2_2146
*2455 TAP_TAPCELL_ROW_8_2_2147
*2456 TAP_TAPCELL_ROW_8_2_2148
*629 TAP_TAPCELL_ROW_90_1_321
*3226 TAP_TAPCELL_ROW_90_2_2918
*3227 TAP_TAPCELL_ROW_90_2_2919
*3228 TAP_TAPCELL_ROW_90_2_2920
*3229 TAP_TAPCELL_ROW_90_2_2921
*3230 TAP_TAPCELL_ROW_90_2_2922
*3231 TAP_TAPCELL_ROW_90_2_2923
*3232 TAP_TAPCELL_ROW_90_2_2924
*3233 TAP_TAPCELL_ROW_90_2_2925
*3234 TAP_TAPCELL_ROW_90_2_2926
*3235 TAP_TAPCELL_ROW_90_2_2927
*3236 TAP_TAPCELL_ROW_91_2_2928
*3237 TAP_TAPCELL_ROW_91_2_2929
*3238 TAP_TAPCELL_ROW_91_2_2930
*3239 TAP_TAPCELL_ROW_91_2_2931
*3240 TAP_TAPCELL_ROW_91_2_2932
*3241 TAP_TAPCELL_ROW_91_2_2933
*3242 TAP_TAPCELL_ROW_91_2_2934
*3243 TAP_TAPCELL_ROW_91_2_2935
*3244 TAP_TAPCELL_ROW_91_2_2936
*630 TAP_TAPCELL_ROW_92_1_322
*3245 TAP_TAPCELL_ROW_92_2_2937
*3246 TAP_TAPCELL_ROW_92_2_2938
*3247 TAP_TAPCELL_ROW_92_2_2939
*3248 TAP_TAPCELL_ROW_92_2_2940
*3249 TAP_TAPCELL_ROW_92_2_2941
*3250 TAP_TAPCELL_ROW_92_2_2942
*3251 TAP_TAPCELL_ROW_92_2_2943
*3252 TAP_TAPCELL_ROW_92_2_2944
*3253 TAP_TAPCELL_ROW_92_2_2945
*3254 TAP_TAPCELL_ROW_92_2_2946
*3255 TAP_TAPCELL_ROW_93_2_2947
*3256 TAP_TAPCELL_ROW_93_2_2948
*3257 TAP_TAPCELL_ROW_93_2_2949
*3258 TAP_TAPCELL_ROW_93_2_2950
*3259 TAP_TAPCELL_ROW_93_2_2951
*3260 TAP_TAPCELL_ROW_93_2_2952
*3261 TAP_TAPCELL_ROW_93_2_2953
*3262 TAP_TAPCELL_ROW_93_2_2954
*3263 TAP_TAPCELL_ROW_93_2_2955
*631 TAP_TAPCELL_ROW_94_1_323
*3264 TAP_TAPCELL_ROW_94_2_2956
*3265 TAP_TAPCELL_ROW_94_2_2957
*3266 TAP_TAPCELL_ROW_94_2_2958
*3267 TAP_TAPCELL_ROW_94_2_2959
*3268 TAP_TAPCELL_ROW_94_2_2960
*3269 TAP_TAPCELL_ROW_94_2_2961
*3270 TAP_TAPCELL_ROW_94_2_2962
*3271 TAP_TAPCELL_ROW_94_2_2963
*3272 TAP_TAPCELL_ROW_94_2_2964
*3273 TAP_TAPCELL_ROW_94_2_2965
*3274 TAP_TAPCELL_ROW_95_2_2966
*3275 TAP_TAPCELL_ROW_95_2_2967
*3276 TAP_TAPCELL_ROW_95_2_2968
*3277 TAP_TAPCELL_ROW_95_2_2969
*3278 TAP_TAPCELL_ROW_95_2_2970
*3279 TAP_TAPCELL_ROW_95_2_2971
*3280 TAP_TAPCELL_ROW_95_2_2972
*3281 TAP_TAPCELL_ROW_95_2_2973
*3282 TAP_TAPCELL_ROW_95_2_2974
*632 TAP_TAPCELL_ROW_96_1_324
*3283 TAP_TAPCELL_ROW_96_2_2975
*3284 TAP_TAPCELL_ROW_96_2_2976
*3285 TAP_TAPCELL_ROW_96_2_2977
*3286 TAP_TAPCELL_ROW_96_2_2978
*3287 TAP_TAPCELL_ROW_96_2_2979
*3288 TAP_TAPCELL_ROW_96_2_2980
*3289 TAP_TAPCELL_ROW_96_2_2981
*3290 TAP_TAPCELL_ROW_96_2_2982
*3291 TAP_TAPCELL_ROW_96_2_2983
*3292 TAP_TAPCELL_ROW_96_2_2984
*3293 TAP_TAPCELL_ROW_97_2_2985
*3294 TAP_TAPCELL_ROW_97_2_2986
*3295 TAP_TAPCELL_ROW_97_2_2987
*3296 TAP_TAPCELL_ROW_97_2_2988
*3297 TAP_TAPCELL_ROW_97_2_2989
*3298 TAP_TAPCELL_ROW_97_2_2990
*3299 TAP_TAPCELL_ROW_97_2_2991
*3300 TAP_TAPCELL_ROW_97_2_2992
*3301 TAP_TAPCELL_ROW_97_2_2993
*633 TAP_TAPCELL_ROW_98_1_325
*3302 TAP_TAPCELL_ROW_98_2_2994
*3303 TAP_TAPCELL_ROW_98_2_2995
*3304 TAP_TAPCELL_ROW_98_2_2996
*3305 TAP_TAPCELL_ROW_98_2_2997
*3306 TAP_TAPCELL_ROW_98_2_2998
*3307 TAP_TAPCELL_ROW_98_2_2999
*3308 TAP_TAPCELL_ROW_98_2_3000
*3309 TAP_TAPCELL_ROW_98_2_3001
*3310 TAP_TAPCELL_ROW_98_2_3002
*3311 TAP_TAPCELL_ROW_98_2_3003
*3312 TAP_TAPCELL_ROW_99_2_3004
*3313 TAP_TAPCELL_ROW_99_2_3005
*3314 TAP_TAPCELL_ROW_99_2_3006
*3315 TAP_TAPCELL_ROW_99_2_3007
*3316 TAP_TAPCELL_ROW_99_2_3008
*3317 TAP_TAPCELL_ROW_99_2_3009
*3318 TAP_TAPCELL_ROW_99_2_3010
*3319 TAP_TAPCELL_ROW_99_2_3011
*3320 TAP_TAPCELL_ROW_99_2_3012
*2457 TAP_TAPCELL_ROW_9_2_2149
*2458 TAP_TAPCELL_ROW_9_2_2150
*2459 TAP_TAPCELL_ROW_9_2_2151
*2460 TAP_TAPCELL_ROW_9_2_2152
*2461 TAP_TAPCELL_ROW_9_2_2153
*2462 TAP_TAPCELL_ROW_9_2_2154
*2463 TAP_TAPCELL_ROW_9_2_2155
*2464 TAP_TAPCELL_ROW_9_2_2156
*2465 TAP_TAPCELL_ROW_9_2_2157
*3621 hold149
*3622 hold150
*3623 hold151
*3624 hold152
*3625 hold153
*3626 hold154
*3627 hold155
*3628 hold156
*3473 input1
*3482 input10
*3483 input11
*3484 input12
*3485 input13
*3486 input14
*3487 input15
*3488 input16
*3489 input17
*3490 input18
*3491 input19
*3474 input2
*3492 input20
*3493 input21
*3494 input22
*3495 input23
*3496 input24
*3497 input25
*3498 input26
*3499 input27
*3500 input28
*3501 input29
*3475 input3
*3502 input30
*3503 input31
*3504 input32
*3505 input33
*3506 input34
*3507 input35
*3508 input36
*3509 input37
*3510 input38
*3511 input39
*3476 input4
*3512 input40
*3513 input41
*3514 input42
*3515 input43
*3516 input44
*3517 input45
*3518 input46
*3519 input47
*3520 input48
*3521 input49
*3477 input5
*3522 input50
*3523 input51
*3524 input52
*3525 input53
*3526 input54
*3527 input55
*3528 input56
*3529 input57
*3530 input58
*3531 input59
*3478 input6
*3532 input60
*3533 input61
*3534 input62
*3535 input63
*3536 input64
*3537 input65
*3538 input66
*3539 input67
*3540 input68
*3541 input69
*3479 input7
*3542 input70
*3543 input71
*3544 input72
*3545 input73
*3546 input74
*3547 input75
*3548 input76
*3549 input77
*3550 input78
*3551 input79
*3480 input8
*3552 input80
*3553 input81
*3554 input82
*3555 input83
*3481 input9
*3572 output100
*3573 output101
*3574 output102
*3575 output103
*3576 output104
*3577 output105
*3578 output106
*3579 output107
*3580 output108
*3581 output109
*3582 output110
*3583 output111
*3584 output112
*3585 output113
*3586 output114
*3587 output115
*3588 output116
*3589 output117
*3590 output118
*3591 output119
*3592 output120
*3593 output121
*3594 output122
*3595 output123
*3596 output124
*3597 output125
*3598 output126
*3599 output127
*3600 output128
*3601 output129
*3602 output130
*3603 output131
*3604 output132
*3605 output133
*3606 output134
*3607 output135
*3608 output136
*3609 output137
*3610 output138
*3611 output139
*3612 output140
*3613 output141
*3614 output142
*3615 output143
*3616 output144
*3617 output145
*3618 output146
*3619 output147
*3556 output84
*3557 output85
*3558 output86
*3559 output87
*3560 output88
*3561 output89
*3562 output90
*3563 output91
*3564 output92
*3565 output93
*3566 output94
*3567 output95
*3568 output96
*3569 output97
*3570 output98
*3571 output99
*307 u_data
*3620 wire148

*PORTS
addr[0] I
addr[1] I
addr[2] I
addr[3] I
addr[4] I
addr[5] I
addr[6] I
addr[7] I
ce I
clk I
data_in[0] I
data_in[10] I
data_in[11] I
data_in[12] I
data_in[13] I
data_in[14] I
data_in[15] I
data_in[16] I
data_in[17] I
data_in[18] I
data_in[19] I
data_in[1] I
data_in[20] I
data_in[21] I
data_in[22] I
data_in[23] I
data_in[24] I
data_in[25] I
data_in[26] I
data_in[27] I
data_in[28] I
data_in[29] I
data_in[2] I
data_in[30] I
data_in[31] I
data_in[32] I
data_in[33] I
data_in[34] I
data_in[35] I
data_in[36] I
data_in[37] I
data_in[38] I
data_in[39] I
data_in[3] I
data_in[40] I
data_in[41] I
data_in[42] I
data_in[43] I
data_in[44] I
data_in[45] I
data_in[46] I
data_in[47] I
data_in[48] I
data_in[49] I
data_in[4] I
data_in[50] I
data_in[51] I
data_in[52] I
data_in[53] I
data_in[54] I
data_in[55] I
data_in[56] I
data_in[57] I
data_in[58] I
data_in[59] I
data_in[5] I
data_in[60] I
data_in[61] I
data_in[62] I
data_in[63] I
data_in[6] I
data_in[7] I
data_in[8] I
data_in[9] I
data_out[0] O
data_out[10] O
data_out[11] O
data_out[12] O
data_out[13] O
data_out[14] O
data_out[15] O
data_out[16] O
data_out[17] O
data_out[18] O
data_out[19] O
data_out[1] O
data_out[20] O
data_out[21] O
data_out[22] O
data_out[23] O
data_out[24] O
data_out[25] O
data_out[26] O
data_out[27] O
data_out[28] O
data_out[29] O
data_out[2] O
data_out[30] O
data_out[31] O
data_out[32] O
data_out[33] O
data_out[34] O
data_out[35] O
data_out[36] O
data_out[37] O
data_out[38] O
data_out[39] O
data_out[3] O
data_out[40] O
data_out[41] O
data_out[42] O
data_out[43] O
data_out[44] O
data_out[45] O
data_out[46] O
data_out[47] O
data_out[48] O
data_out[49] O
data_out[4] O
data_out[50] O
data_out[51] O
data_out[52] O
data_out[53] O
data_out[54] O
data_out[55] O
data_out[56] O
data_out[57] O
data_out[58] O
data_out[59] O
data_out[5] O
data_out[60] O
data_out[61] O
data_out[62] O
data_out[63] O
data_out[6] O
data_out[7] O
data_out[8] O
data_out[9] O
rstb I
we I
wmask[0] I
wmask[1] I
wmask[2] I
wmask[3] I
wmask[4] I
wmask[5] I
wmask[6] I
wmask[7] I

*D_NET *151 0.00840642
*CONN
*P addr[0] I
*I *3473:A I *D sky130_fd_sc_hd__clkdlybuf4s50_1
*CAP
1 addr[0] 0.00231516
2 *3473:A 0
3 *151:9 0.00188805
4 *151:5 0.00420321
*RES
1 addr[0] *151:5 59.491 
2 *151:5 *151:9 48.0593 
3 *151:9 *3473:A 13.7491 
*END

*D_NET *152 0.00839884
*CONN
*P addr[1] I
*I *3474:A I *D sky130_fd_sc_hd__clkdlybuf4s50_1
*CAP
1 addr[1] 0.000134024
2 *3474:A 2.54528e-05
3 *152:9 0.00405631
4 *152:7 0.00416488
5 *152:9 *153:5 0
6 *2:8 *3474:A 1.81618e-05
*RES
1 addr[1] *152:7 3.89604 
2 *152:7 *152:9 102.531 
3 *152:9 *3474:A 14.4725 
*END

*D_NET *153 0.00827103
*CONN
*P addr[2] I
*I *3475:A I *D sky130_fd_sc_hd__clkdlybuf4s50_1
*CAP
1 addr[2] 0.00405706
2 *3475:A 7.84524e-05
3 *153:5 0.00413552
4 *152:9 *153:5 0
*RES
1 addr[2] *153:5 103.276 
2 *153:5 *3475:A 15.5817 
*END

*D_NET *154 0.00884455
*CONN
*P addr[3] I
*I *3476:A I *D sky130_fd_sc_hd__clkdlybuf4s50_1
*CAP
1 addr[3] 0.00431903
2 *3476:A 0.000103238
3 *154:5 0.00442227
*RES
1 addr[3] *154:5 109.92 
2 *154:5 *3476:A 16.1364 
*END

*D_NET *155 0.00888936
*CONN
*P addr[4] I
*I *3477:A I *D sky130_fd_sc_hd__clkdlybuf4s50_1
*CAP
1 addr[4] 0.00431903
2 *3477:A 0.000125643
3 *155:5 0.00444468
*RES
1 addr[4] *155:5 109.92 
2 *155:5 *3477:A 16.691 
*END

*D_NET *156 0.00820061
*CONN
*P addr[5] I
*I *3478:A I *D sky130_fd_sc_hd__clkdlybuf4s50_1
*CAP
1 addr[5] 0.00231431
2 *3478:A 0
3 *156:11 0.00178599
4 *156:5 0.00410031
*RES
1 addr[5] *156:5 59.491 
2 *156:5 *156:11 49.7503 
3 *156:11 *3478:A 9.24915 
*END

*D_NET *157 0.00880916
*CONN
*P addr[6] I
*I *3479:A I *D sky130_fd_sc_hd__clkdlybuf4s50_1
*CAP
1 addr[6] 0.00231516
2 *3479:A 0
3 *157:9 0.00200229
4 *157:7 0.00208942
5 *157:5 0.00240229
6 *8:8 *157:9 0
*RES
1 addr[6] *157:5 59.491 
2 *157:5 *157:7 2.41823 
3 *157:7 *157:9 50.5997 
4 *157:9 *3479:A 13.7491 
*END

*D_NET *158 0.00865611
*CONN
*P addr[7] I
*I *3480:A I *D sky130_fd_sc_hd__clkdlybuf4s50_1
*CAP
1 addr[7] 0.00231516
2 *3480:A 0
3 *158:9 0.00188527
4 *158:7 0.0020129
5 *158:5 0.00244278
*RES
1 addr[7] *158:5 59.491 
2 *158:5 *158:7 3.54186 
3 *158:7 *158:9 47.6929 
4 *158:9 *3480:A 13.7491 
*END

*D_NET *159 0.00876106
*CONN
*P ce I
*I *3481:A I *D sky130_fd_sc_hd__clkdlybuf4s50_1
*CAP
1 ce 5.49842e-05
2 *3481:A 2.65611e-05
3 *159:9 0.00431705
4 *159:7 0.00434547
5 *159:9 *225:9 0
6 *9:8 *3481:A 1.69927e-05
*RES
1 ce *159:7 1.6488 
2 *159:7 *159:9 109.175 
3 *159:9 *3481:A 14.4725 
*END

*D_NET *10 0.0179302
*CONN
*P clk I
*I *307:clk I *D sram22_256x64m4w8
*CAP
1 clk 0.00842702
2 *307:clk 0.00842702
3 *307:clk *307:rstb 5.30479e-05
4 *307:clk *3624:A 0.000241377
5 *307:clk *225:5 0
6 *307:clk *302:12 0.000232337
7 *307:clk *303:10 0.000549448
*RES
1 clk *307:clk 39.1784 
*END

*D_NET *160 0.0100877
*CONN
*P data_in[0] I
*I *3482:A I *D sky130_fd_sc_hd__clkdlybuf4s50_1
*CAP
1 data_in[0] 0.000122548
2 *3482:A 0
3 *160:13 0.00300804
4 *160:11 0.00313059
5 *160:11 data_out[0] 5.50136e-06
6 *160:11 *226:5 5.50136e-06
7 *160:13 *226:5 0.00162917
8 *160:13 *226:11 0.00218631
9 *160:13 *234:10 0
10 *307:wmask[0] *160:13 0
*RES
1 data_in[0] *160:11 11.6803 
2 *160:11 *160:13 103.154 
3 *160:13 *3482:A 13.7491 
*END

*D_NET *161 0.00844704
*CONN
*P data_in[10] I
*I *3483:A I *D sky130_fd_sc_hd__clkdlybuf4s50_1
*CAP
1 data_in[10] 0.00012468
2 *3483:A 5.63798e-05
3 *161:9 0.00408484
4 *161:7 0.00415314
5 *161:7 data_out[10] 2.79993e-05
6 *161:9 data_out[10] 0
7 *161:9 data_out[9] 0
*RES
1 data_in[10] *161:7 3.89604 
2 *161:7 *161:9 102.531 
3 *161:9 *3483:A 15.0271 
*END

*D_NET *162 0.00885388
*CONN
*P data_in[11] I
*I *3484:A I *D sky130_fd_sc_hd__clkdlybuf4s50_1
*CAP
1 data_in[11] 0.00175867
2 *3484:A 0
3 *162:9 0.00184756
4 *162:5 0.00360624
5 *162:5 data_out[11] 0.00164141
6 *162:9 data_out[10] 0
7 *162:9 data_out[11] 0
*RES
1 data_in[11] *162:5 59.491 
2 *162:5 *162:9 46.9357 
3 *162:9 *3484:A 13.7491 
*END

*D_NET *163 0.0082628
*CONN
*P data_in[12] I
*I *3485:A I *D sky130_fd_sc_hd__clkdlybuf4s50_1
*CAP
1 data_in[12] 4.56404e-05
2 *3485:A 0
3 *163:15 0.00178599
4 *163:9 0.00407176
5 *163:7 0.00233141
6 *163:7 data_out[11] 0
7 *163:7 data_out[12] 2.79993e-05
8 *163:9 data_out[11] 0
9 *163:9 *237:12 0
10 *163:15 data_out[11] 0
11 *163:15 *237:10 0
*RES
1 data_in[12] *163:7 1.6488 
2 *163:7 *163:9 58.746 
3 *163:9 *163:15 49.7503 
4 *163:15 *3485:A 9.24915 
*END

*D_NET *164 0.0084081
*CONN
*P data_in[13] I
*I *3486:A I *D sky130_fd_sc_hd__clkdlybuf4s50_1
*CAP
1 data_in[13] 0.00323452
2 *3486:A 0.000148827
3 *164:5 0.00338335
4 *164:5 data_out[13] 0.00164141
5 *164:5 *237:10 0
6 *164:5 *237:12 0
7 *164:5 *238:10 0
*RES
1 data_in[13] *164:5 96.6316 
2 *164:5 *3486:A 17.2456 
*END

*D_NET *165 0.00867625
*CONN
*P data_in[14] I
*I *3487:A I *D sky130_fd_sc_hd__clkdlybuf4s50_1
*CAP
1 data_in[14] 0.00237516
2 *3487:A 0
3 *165:9 0.00189415
4 *165:5 0.00426931
5 *165:5 data_out[14] 2.79993e-05
6 *165:5 *239:12 0
7 *165:9 *238:10 0
8 *165:9 *239:10 0
9 *80:27 *165:9 0.000109638
*RES
1 data_in[14] *165:5 59.491 
2 *165:5 *165:9 48.9875 
3 *165:9 *3487:A 13.7491 
*END

*D_NET *166 0.0088453
*CONN
*P data_in[15] I
*I *3488:A I *D sky130_fd_sc_hd__clkdlybuf4s50_1
*CAP
1 data_in[15] 0.00350058
2 *3488:A 0.000101365
3 *166:5 0.00360194
4 *166:5 data_out[14] 0
5 *166:5 data_out[15] 0.00164141
6 *166:5 *239:10 0
7 *166:5 *239:12 0
8 *166:5 *240:10 0
*RES
1 data_in[15] *166:5 103.276 
2 *166:5 *3488:A 16.1364 
*END

*D_NET *167 0.00966317
*CONN
*P data_in[16] I
*I *3489:A I *D sky130_fd_sc_hd__clkdlybuf4s50_1
*CAP
1 data_in[16] 0.00220348
2 *3489:A 0
3 *167:5 0.00220348
4 *167:5 data_out[16] 0.00282451
5 *167:5 *228:5 0.00164141
6 *167:5 *228:9 0.000790296
*RES
1 data_in[16] *167:5 103.276 
2 *167:5 *3489:A 13.7491 
*END

*D_NET *168 0.00883146
*CONN
*P data_in[17] I
*I *3490:A I *D sky130_fd_sc_hd__clkdlybuf4s50_1
*CAP
1 data_in[17] 0.00175801
2 *3490:A 0
3 *168:9 0.00183701
4 *168:5 0.00359503
5 *168:5 data_out[16] 0
6 *168:5 data_out[17] 0.00164141
7 *168:9 data_out[16] 0
*RES
1 data_in[17] *168:5 59.491 
2 *168:5 *168:9 45.8121 
3 *168:9 *3490:A 13.7491 
*END

*D_NET *169 0.00877
*CONN
*P data_in[18] I
*I *3491:A I *D sky130_fd_sc_hd__clkdlybuf4s50_1
*CAP
1 data_in[18] 0.00175795
2 *3491:A 0
3 *169:9 0.00180635
4 *169:5 0.0035643
5 *169:5 data_out[18] 0.00164141
6 *169:9 data_out[17] 0
7 *169:9 data_out[18] 0
*RES
1 data_in[18] *169:5 59.491 
2 *169:5 *169:9 45.8121 
3 *169:9 *3491:A 13.7491 
*END

*D_NET *170 0.00893335
*CONN
*P data_in[19] I
*I *3492:A I *D sky130_fd_sc_hd__clkdlybuf4s50_1
*CAP
1 data_in[19] 0.00175768
2 *3492:A 5.65789e-05
3 *170:11 0.00188829
4 *170:5 0.00358939
5 *170:5 data_out[19] 0.00164141
*RES
1 data_in[19] *170:5 59.491 
2 *170:5 *170:11 49.1885 
3 *170:11 *3492:A 10.5271 
*END

*D_NET *171 0.0083713
*CONN
*P data_in[1] I
*I *3493:A I *D sky130_fd_sc_hd__clkdlybuf4s50_1
*CAP
1 data_in[1] 8.51603e-05
2 *3493:A 0
3 *171:9 0.00368962
4 *171:7 0.00377478
5 *171:7 data_out[0] 0
6 *171:7 data_out[1] 2.79993e-05
7 *171:9 data_out[0] 0
8 *171:9 *234:10 0.00079374
9 *171:9 *245:10 0
*RES
1 data_in[1] *171:7 2.77242 
2 *171:7 *171:9 102.531 
3 *171:9 *3493:A 13.7491 
*END

*D_NET *172 0.0088134
*CONN
*P data_in[20] I
*I *3494:A I *D sky130_fd_sc_hd__clkdlybuf4s50_1
*CAP
1 data_in[20] 0.00175867
2 *3494:A 0
3 *172:9 0.00182732
4 *172:5 0.00358599
5 *172:5 data_out[19] 0
6 *172:5 data_out[20] 0.00164141
7 *172:9 *244:10 0
8 *172:9 *246:8 0
*RES
1 data_in[20] *172:5 59.491 
2 *172:5 *172:9 46.3739 
3 *172:9 *3494:A 13.7491 
*END

*D_NET *173 0.00834346
*CONN
*P data_in[21] I
*I *3495:A I *D sky130_fd_sc_hd__clkdlybuf4s50_1
*CAP
1 data_in[21] 8.51603e-05
2 *3495:A 0
3 *173:15 0.00178599
4 *173:9 0.00407257
5 *173:7 0.00237174
6 *173:7 data_out[21] 2.79993e-05
7 *173:9 data_out[20] 0
8 *173:9 data_out[21] 0
9 *173:15 *246:8 0
10 *173:15 *247:10 0
*RES
1 data_in[21] *173:7 2.77242 
2 *173:7 *173:9 58.746 
3 *173:9 *173:15 49.7503 
4 *173:15 *3495:A 9.24915 
*END

*D_NET *174 0.00893885
*CONN
*P data_in[22] I
*I *3496:A I *D sky130_fd_sc_hd__clkdlybuf4s50_1
*CAP
1 data_in[22] 0.00349818
2 *3496:A 0.000149334
3 *174:5 0.00364751
4 *174:5 data_out[22] 0.00164141
5 *174:5 *247:10 0
6 *174:5 *248:10 0
7 *25:8 *3496:A 2.41274e-06
*RES
1 data_in[22] *174:5 103.276 
2 *174:5 *3496:A 17.2456 
*END

*D_NET *175 0.0084258
*CONN
*P data_in[23] I
*I *3497:A I *D sky130_fd_sc_hd__clkdlybuf4s50_1
*CAP
1 data_in[23] 8.51603e-05
2 *3497:A 0
3 *175:15 0.00143057
4 *175:9 0.00371687
5 *175:7 0.00237146
6 *175:7 data_out[22] 0
7 *175:7 data_out[23] 2.79993e-05
8 *175:9 data_out[22] 0
9 *175:9 *249:12 0
10 *175:15 *248:10 0.00079374
*RES
1 data_in[23] *175:7 2.77242 
2 *175:7 *175:9 58.746 
3 *175:9 *175:15 49.1885 
4 *175:15 *3497:A 9.24915 
*END

*D_NET *176 0.0101643
*CONN
*P data_in[24] I
*I *3498:A I *D sky130_fd_sc_hd__clkdlybuf4s50_1
*CAP
1 data_in[24] 0.00313811
2 *3498:A 0.00014323
3 *176:5 0.00328134
4 *176:5 data_out[24] 0.00164141
5 *176:5 *177:9 0
6 *176:5 *229:5 0.00164141
7 *176:5 *229:11 0
8 *176:5 *249:10 0
9 *176:5 *250:10 0
10 *144:10 *176:5 0.000318786
*RES
1 data_in[24] *176:5 109.92 
2 *176:5 *3498:A 16.691 
*END

*D_NET *177 0.00901923
*CONN
*P data_in[25] I
*I *3499:A I *D sky130_fd_sc_hd__clkdlybuf4s50_1
*CAP
1 data_in[25] 0.00175783
2 *3499:A 0
3 *177:9 0.00193108
4 *177:5 0.00368891
5 *177:5 data_out[24] 0
6 *177:5 data_out[25] 0.00164141
7 *177:9 *250:10 0
8 *3573:A *177:9 0
9 *176:5 *177:9 0
*RES
1 data_in[25] *177:5 59.491 
2 *177:5 *177:9 48.9875 
3 *177:9 *3499:A 13.7491 
*END

*D_NET *178 0.00969295
*CONN
*P data_in[26] I
*I *3500:A I *D sky130_fd_sc_hd__clkdlybuf4s50_1
*CAP
1 data_in[26] 0.00231217
2 *3500:A 0
3 *178:9 0.00134169
4 *178:5 0.00365386
5 *178:5 data_out[26] 8.95978e-06
6 *178:5 *252:8 0
7 *178:9 *251:10 0.00237627
8 *3573:A *178:9 0
*RES
1 data_in[26] *178:5 59.491 
2 *178:5 *178:9 46.3739 
3 *178:9 *3500:A 13.7491 
*END

*D_NET *179 0.00826974
*CONN
*P data_in[27] I
*I *3501:A I *D sky130_fd_sc_hd__clkdlybuf4s50_1
*CAP
1 data_in[27] 0.00175997
2 *3501:A 0
3 *179:11 0.00121901
4 *179:5 0.00297898
5 *179:5 data_out[27] 0.00164141
6 *179:5 *252:8 0
7 *179:11 data_out[27] 0.00067038
8 *179:11 *252:8 0
*RES
1 data_in[27] *179:5 59.491 
2 *179:5 *179:11 42.5444 
3 *179:11 *3501:A 9.24915 
*END

*D_NET *180 0.00812355
*CONN
*P data_in[28] I
*I *3502:A I *D sky130_fd_sc_hd__clkdlybuf4s50_1
*CAP
1 data_in[28] 0.00231117
2 *3502:A 0
3 *180:13 0.00174612
4 *180:5 0.0040573
5 *180:5 data_out[27] 0
6 *180:5 data_out[28] 8.95978e-06
7 *180:5 *254:8 0
8 *180:13 data_out[27] 0
9 *307:din[27] *180:13 0
*RES
1 data_in[28] *180:5 59.491 
2 *180:5 *180:13 47.5597 
3 *180:13 *3502:A 9.24915 
*END

*D_NET *181 0.00919826
*CONN
*P data_in[29] I
*I *3503:A I *D sky130_fd_sc_hd__clkdlybuf4s50_1
*CAP
1 data_in[29] 0.00176108
2 *3503:A 0
3 *181:9 0.00142327
4 *181:5 0.00318435
5 *181:5 data_out[29] 0.00164141
6 *181:5 *254:8 0
7 *181:9 *254:8 0.00118814
8 *181:9 *255:8 0
*RES
1 data_in[29] *181:5 59.491 
2 *181:5 *181:9 46.3739 
3 *181:9 *3503:A 13.7491 
*END

*D_NET *182 0.00883082
*CONN
*P data_in[2] I
*I *3504:A I *D sky130_fd_sc_hd__clkdlybuf4s50_1
*CAP
1 data_in[2] 0.00175795
2 *3504:A 0
3 *182:9 0.00183676
4 *182:5 0.00359471
5 *182:5 data_out[2] 0.00164141
6 *182:9 data_out[2] 0
*RES
1 data_in[2] *182:5 59.491 
2 *182:5 *182:9 45.8121 
3 *182:9 *3504:A 13.7491 
*END

*D_NET *183 0.00895467
*CONN
*P data_in[30] I
*I *3505:A I *D sky130_fd_sc_hd__clkdlybuf4s50_1
*CAP
1 data_in[30] 0.00175867
2 *3505:A 0
3 *183:9 0.00189796
4 *183:5 0.00365663
5 *183:5 data_out[30] 0.00164141
6 *183:9 *255:8 0
7 *183:9 *257:10 0
*RES
1 data_in[30] *183:5 59.491 
2 *183:5 *183:9 46.9357 
3 *183:9 *3505:A 13.7491 
*END

*D_NET *184 0.00888632
*CONN
*P data_in[31] I
*I *3506:A I *D sky130_fd_sc_hd__clkdlybuf4s50_1
*CAP
1 data_in[31] 0.00349818
2 *3506:A 0.000124277
3 *184:5 0.00362246
4 *184:5 data_out[30] 0
5 *184:5 data_out[31] 0.00164141
6 *184:5 *257:10 0
7 *184:5 *258:10 0
*RES
1 data_in[31] *184:5 103.276 
2 *184:5 *3506:A 16.691 
*END

*D_NET *185 0.0102578
*CONN
*P data_in[32] I
*I *3507:A I *D sky130_fd_sc_hd__clkdlybuf4s50_1
*CAP
1 data_in[32] 9.28139e-05
2 *3507:A 0
3 *185:15 0.00118557
4 *185:9 0.00292467
5 *185:7 0.00183191
6 *185:7 data_out[32] 2.79993e-05
7 *185:7 *230:11 5.50136e-06
8 *185:7 *230:13 0
9 *185:9 *230:13 0.0016136
10 *185:9 *259:12 0
11 *185:15 *230:13 0.00257569
12 *185:15 *259:10 0
*RES
1 data_in[32] *185:7 2.77242 
2 *185:7 *185:9 58.746 
3 *185:9 *185:15 49.1885 
4 *185:15 *3507:A 9.24915 
*END

*D_NET *186 0.0088472
*CONN
*P data_in[33] I
*I *3508:A I *D sky130_fd_sc_hd__clkdlybuf4s50_1
*CAP
1 data_in[33] 0.00349818
2 *3508:A 0.000103509
3 *186:5 0.00360169
4 *186:5 data_out[33] 0.00164141
5 *186:5 *259:10 0
6 *186:5 *259:12 0
7 *186:5 *260:10 0
8 *37:8 *3508:A 2.41274e-06
*RES
1 data_in[33] *186:5 103.276 
2 *186:5 *3508:A 16.1364 
*END

*D_NET *187 0.0103103
*CONN
*P data_in[34] I
*I *3509:A I *D sky130_fd_sc_hd__clkdlybuf4s50_1
*CAP
1 data_in[34] 0.00175867
2 *3509:A 0
3 *187:9 0.00128791
4 *187:5 0.00304658
5 *187:5 data_out[33] 0
6 *187:5 data_out[34] 0.00164141
7 *187:9 *260:10 0.00257569
*RES
1 data_in[34] *187:5 59.491 
2 *187:5 *187:9 47.4975 
3 *187:9 *3509:A 13.7491 
*END

*D_NET *188 0.00820113
*CONN
*P data_in[35] I
*I *3510:A I *D sky130_fd_sc_hd__clkdlybuf4s50_1
*CAP
1 data_in[35] 0.00184787
2 *3510:A 0
3 *188:11 0.00169784
4 *188:5 0.00354571
5 *188:5 data_out[35] 8.95978e-06
6 *188:5 *262:8 0.00110074
7 *188:11 *262:8 0
*RES
1 data_in[35] *188:5 59.491 
2 *188:5 *188:11 46.8435 
3 *188:11 *3510:A 9.24915 
*END

*D_NET *189 0.00881518
*CONN
*P data_in[36] I
*I *3511:A I *D sky130_fd_sc_hd__clkdlybuf4s50_1
*CAP
1 data_in[36] 0.00175755
2 *3511:A 0
3 *189:11 0.00143419
4 *189:5 0.00319174
5 *189:5 data_out[35] 0
6 *189:5 data_out[36] 0.00164141
7 *189:5 *262:8 0
8 *189:11 data_out[36] 0.000790296
9 *189:11 *262:8 0
*RES
1 data_in[36] *189:5 59.491 
2 *189:5 *189:11 49.1885 
3 *189:11 *3511:A 9.24915 
*END

*D_NET *190 0.00883146
*CONN
*P data_in[37] I
*I *3512:A I *D sky130_fd_sc_hd__clkdlybuf4s50_1
*CAP
1 data_in[37] 0.00175801
2 *3512:A 0
3 *190:9 0.00183701
4 *190:5 0.00359503
5 *190:5 data_out[37] 0.00164141
6 *190:9 data_out[36] 0
*RES
1 data_in[37] *190:5 59.491 
2 *190:5 *190:9 45.8121 
3 *190:9 *3512:A 13.7491 
*END

*D_NET *191 0.00877
*CONN
*P data_in[38] I
*I *3513:A I *D sky130_fd_sc_hd__clkdlybuf4s50_1
*CAP
1 data_in[38] 0.00175795
2 *3513:A 0
3 *191:9 0.00180635
4 *191:5 0.0035643
5 *191:5 data_out[38] 0.00164141
6 *191:9 *264:10 0
7 *191:9 *265:8 0
*RES
1 data_in[38] *191:5 59.491 
2 *191:5 *191:9 45.8121 
3 *191:9 *3513:A 13.7491 
*END

*D_NET *192 0.0088484
*CONN
*P data_in[39] I
*I *3514:A I *D sky130_fd_sc_hd__clkdlybuf4s50_1
*CAP
1 data_in[39] 0.00349818
2 *3514:A 0.000105315
3 *192:5 0.00360349
4 *192:5 data_out[38] 0
5 *192:5 data_out[39] 0.00164141
6 *192:5 *265:8 0
7 *192:5 *266:10 0
*RES
1 data_in[39] *192:5 103.276 
2 *192:5 *3514:A 16.1364 
*END

*D_NET *193 0.00830375
*CONN
*P data_in[3] I
*I *3515:A I *D sky130_fd_sc_hd__clkdlybuf4s50_1
*CAP
1 data_in[3] 4.56404e-05
2 *3515:A 0
3 *193:13 0.00180635
4 *193:9 0.00409223
5 *193:7 0.00233152
6 *193:7 data_out[3] 2.79993e-05
7 *193:9 *267:10 0
8 *193:13 data_out[2] 0
9 *193:13 *267:10 0
*RES
1 data_in[3] *193:7 1.6488 
2 *193:7 *193:9 58.746 
3 *193:9 *193:13 45.8121 
4 *193:13 *3515:A 13.7491 
*END

*D_NET *194 0.00951461
*CONN
*P data_in[40] I
*I *3516:A I *D sky130_fd_sc_hd__clkdlybuf4s50_1
*CAP
1 data_in[40] 0.00261196
2 *3516:A 0.000110414
3 *194:5 0.00272237
4 *194:5 data_out[40] 0.00164141
5 *194:5 *231:5 0.00164141
6 *194:5 *231:9 0.000787052
7 *194:5 *268:10 0
*RES
1 data_in[40] *194:5 103.276 
2 *194:5 *3516:A 16.1364 
*END

*D_NET *195 0.00848598
*CONN
*P data_in[41] I
*I *3517:A I *D sky130_fd_sc_hd__clkdlybuf4s50_1
*CAP
1 data_in[41] 8.93663e-05
2 *3517:A 3.31444e-05
3 *195:9 0.00414914
4 *195:7 0.00420536
5 *195:7 data_out[41] 8.95978e-06
6 *195:9 data_out[40] 0
7 *195:9 data_out[41] 0
8 *195:9 *268:10 0
*RES
1 data_in[41] *195:7 2.71135 
2 *195:7 *195:9 103.154 
3 *195:9 *3517:A 14.4725 
*END

*D_NET *196 0.00872905
*CONN
*P data_in[42] I
*I *3518:A I *D sky130_fd_sc_hd__clkdlybuf4s50_1
*CAP
1 data_in[42] 0.00175783
2 *3518:A 0
3 *196:11 0.00178599
4 *196:5 0.00354382
5 *196:5 data_out[41] 0
6 *196:5 data_out[42] 0.00164141
7 *196:11 *269:10 0
8 *196:11 *270:10 0
*RES
1 data_in[42] *196:5 59.491 
2 *196:5 *196:11 49.7503 
3 *196:11 *3518:A 9.24915 
*END

*D_NET *197 0.00863321
*CONN
*P data_in[43] I
*I *3519:A I *D sky130_fd_sc_hd__clkdlybuf4s50_1
*CAP
1 data_in[43] 0.00238211
2 *3519:A 0
3 *197:9 0.00153315
4 *197:5 0.00391526
5 *197:5 data_out[43] 8.95978e-06
6 *197:5 *271:10 0
7 *197:9 *270:10 0.00079374
*RES
1 data_in[43] *197:5 59.491 
2 *197:5 *197:9 47.4975 
3 *197:9 *3519:A 13.7491 
*END

*D_NET *198 0.00936387
*CONN
*P data_in[44] I
*I *3520:A I *D sky130_fd_sc_hd__clkdlybuf4s50_1
*CAP
1 data_in[44] 0.00179362
2 *3520:A 0
3 *198:9 0.00150004
4 *198:5 0.00329366
5 *198:5 data_out[43] 0
6 *198:5 data_out[44] 0.00164141
7 *198:5 *271:10 0
8 *198:9 *271:10 0.00113515
9 *198:9 *272:10 0
*RES
1 data_in[44] *198:5 59.491 
2 *198:5 *198:9 46.9357 
3 *198:9 *3520:A 13.7491 
*END

*D_NET *199 0.00853825
*CONN
*P data_in[45] I
*I *3521:A I *D sky130_fd_sc_hd__clkdlybuf4s50_1
*CAP
1 data_in[45] 0.00175795
2 *3521:A 0
3 *199:11 0.00169047
4 *199:5 0.00344842
5 *199:5 data_out[45] 0.00164141
6 *199:11 data_out[45] 0
7 *199:11 *272:10 0
*RES
1 data_in[45] *199:5 59.491 
2 *199:5 *199:11 47.4053 
3 *199:11 *3521:A 9.24915 
*END

*D_NET *200 0.00881824
*CONN
*P data_in[46] I
*I *3522:A I *D sky130_fd_sc_hd__clkdlybuf4s50_1
*CAP
1 data_in[46] 0.00175867
2 *3522:A 0
3 *200:9 0.00182974
4 *200:5 0.00358841
5 *200:5 data_out[46] 0.00164141
6 *200:9 data_out[45] 0
7 *200:9 *274:10 0
8 *50:10 *200:9 0
*RES
1 data_in[46] *200:5 59.491 
2 *200:5 *200:9 46.3739 
3 *200:9 *3522:A 13.7491 
*END

*D_NET *201 0.00877
*CONN
*P data_in[47] I
*I *3523:A I *D sky130_fd_sc_hd__clkdlybuf4s50_1
*CAP
1 data_in[47] 0.00175795
2 *3523:A 0
3 *201:9 0.00180635
4 *201:5 0.0035643
5 *201:5 data_out[46] 0
6 *201:5 data_out[47] 0.00164141
7 *201:9 *274:10 0
8 *201:9 *275:8 0
*RES
1 data_in[47] *201:5 59.491 
2 *201:5 *201:9 45.8121 
3 *201:9 *3523:A 13.7491 
*END

*D_NET *202 0.0104231
*CONN
*P data_in[48] I
*I *3524:A I *D sky130_fd_sc_hd__clkdlybuf4s50_1
*CAP
1 data_in[48] 0.000181867
2 *3524:A 5.68788e-05
3 *202:13 0.00362423
4 *202:11 0.00374922
5 *202:11 data_out[48] 5.50136e-06
6 *202:11 *232:5 5.50136e-06
7 *202:13 data_out[47] 0
8 *202:13 *232:5 0
9 *202:13 *275:8 0.00279993
10 *147:10 *202:13 0
*RES
1 data_in[48] *202:11 13.3441 
2 *202:11 *202:13 106.891 
3 *202:13 *3524:A 15.0271 
*END

*D_NET *203 0.00828996
*CONN
*P data_in[49] I
*I *3525:A I *D sky130_fd_sc_hd__clkdlybuf4s50_1
*CAP
1 data_in[49] 0.00010492
2 *3525:A 0
3 *203:9 0.00402606
4 *203:7 0.00413098
5 *203:7 data_out[49] 2.79993e-05
6 *203:9 data_out[48] 0
7 *203:9 data_out[49] 0
8 *203:9 *276:8 0
9 *203:9 *277:8 0
*RES
1 data_in[49] *203:7 3.33423 
2 *203:7 *203:9 102.531 
3 *203:9 *3525:A 13.7491 
*END

*D_NET *204 0.00851217
*CONN
*P data_in[4] I
*I *3526:A I *D sky130_fd_sc_hd__clkdlybuf4s50_1
*CAP
1 data_in[4] 0.00295296
2 *3526:A 0.000148827
3 *204:5 0.00310178
4 *204:5 data_out[3] 0
5 *204:5 data_out[4] 0.00164141
6 *204:5 *267:10 0
7 *204:5 *278:10 0.000667196
*RES
1 data_in[4] *204:5 96.6316 
2 *204:5 *3526:A 17.2456 
*END

*D_NET *205 0.00922785
*CONN
*P data_in[50] I
*I *3527:A I *D sky130_fd_sc_hd__clkdlybuf4s50_1
*CAP
1 data_in[50] 7.30169e-05
2 *3527:A 5.85326e-05
3 *205:9 0.00313608
4 *205:7 0.00315057
5 *205:7 data_out[49] 0
6 *205:7 data_out[50] 8.95978e-06
7 *205:7 *279:8 0
8 *205:9 *279:8 0.00279828
9 *56:8 *3527:A 2.41274e-06
*RES
1 data_in[50] *205:7 2.21061 
2 *205:7 *205:9 102.531 
3 *205:9 *3527:A 15.0271 
*END

*D_NET *206 0.00877482
*CONN
*P data_in[51] I
*I *3528:A I *D sky130_fd_sc_hd__clkdlybuf4s50_1
*CAP
1 data_in[51] 0.00176036
2 *3528:A 0
3 *206:9 0.00180635
4 *206:5 0.00356671
5 *206:5 data_out[51] 0.00164141
6 *206:5 *279:8 0
7 *206:9 *279:8 0
8 *206:9 *280:10 0
*RES
1 data_in[51] *206:5 59.491 
2 *206:5 *206:9 45.8121 
3 *206:9 *3528:A 13.7491 
*END

*D_NET *207 0.00833242
*CONN
*P data_in[52] I
*I *3529:A I *D sky130_fd_sc_hd__clkdlybuf4s50_1
*CAP
1 data_in[52] 6.54004e-05
2 *3529:A 0
3 *207:15 0.00176572
4 *207:9 0.00408681
5 *207:7 0.00238649
6 *207:7 data_out[52] 2.79993e-05
7 *207:9 data_out[51] 0
8 *207:9 *281:12 0
9 *207:15 *280:10 0
10 *207:15 *281:10 0
*RES
1 data_in[52] *207:7 2.21061 
2 *207:7 *207:9 58.746 
3 *207:9 *207:15 49.1885 
4 *207:15 *3529:A 9.24915 
*END

*D_NET *208 0.00888074
*CONN
*P data_in[53] I
*I *3530:A I *D sky130_fd_sc_hd__clkdlybuf4s50_1
*CAP
1 data_in[53] 0.0017925
2 *3530:A 0
3 *208:11 0.00143202
4 *208:5 0.00322452
5 *208:5 data_out[52] 0
6 *208:5 data_out[53] 0.00164141
7 *208:5 *281:12 0
8 *208:11 data_out[53] 0.000790296
9 *208:11 *281:10 0
*RES
1 data_in[53] *208:5 59.491 
2 *208:5 *208:11 49.1885 
3 *208:11 *3530:A 9.24915 
*END

*D_NET *209 0.0104639
*CONN
*P data_in[54] I
*I *3531:A I *D sky130_fd_sc_hd__clkdlybuf4s50_1
*CAP
1 data_in[54] 0.0015261
2 *3531:A 0
3 *209:11 0.00136311
4 *209:5 0.0028892
5 *209:5 data_out[54] 2.27728e-05
6 *209:5 *283:10 0.00347958
7 *209:11 *283:10 0.0011831
*RES
1 data_in[54] *209:5 59.491 
2 *209:5 *209:11 49.1885 
3 *209:11 *3531:A 9.24915 
*END

*D_NET *210 0.00872905
*CONN
*P data_in[55] I
*I *3532:A I *D sky130_fd_sc_hd__clkdlybuf4s50_1
*CAP
1 data_in[55] 0.00175783
2 *3532:A 0
3 *210:11 0.00178599
4 *210:5 0.00354382
5 *210:5 data_out[54] 0
6 *210:5 data_out[55] 0.00164141
7 *210:11 *283:10 0
8 *210:11 *284:10 0
*RES
1 data_in[55] *210:5 59.491 
2 *210:5 *210:11 49.7503 
3 *210:11 *3532:A 9.24915 
*END

*D_NET *211 0.010357
*CONN
*P data_in[56] I
*I *3533:A I *D sky130_fd_sc_hd__clkdlybuf4s50_1
*CAP
1 data_in[56] 0.0017486
2 *3533:A 0
3 *211:9 0.00116152
4 *211:5 0.00291012
5 *211:5 data_out[56] 0.00164141
6 *211:5 *233:7 2.79993e-05
7 *211:5 *233:9 0
8 *211:9 *233:9 0.00257569
9 *211:9 *285:10 0
10 *3607:A *211:9 0.000291676
*RES
1 data_in[56] *211:5 59.491 
2 *211:5 *211:9 45.8121 
3 *211:9 *3533:A 13.7491 
*END

*D_NET *212 0.00858164
*CONN
*P data_in[57] I
*I *3534:A I *D sky130_fd_sc_hd__clkdlybuf4s50_1
*CAP
1 data_in[57] 0.00175867
2 *3534:A 0
3 *212:11 0.00171144
4 *212:5 0.00347012
5 *212:5 data_out[57] 0.00164141
6 *212:11 *285:10 0
7 *212:11 *286:10 0
*RES
1 data_in[57] *212:5 59.491 
2 *212:5 *212:11 47.9671 
3 *212:11 *3534:A 9.24915 
*END

*D_NET *213 0.00838586
*CONN
*P data_in[58] I
*I *3535:A I *D sky130_fd_sc_hd__clkdlybuf4s50_1
*CAP
1 data_in[58] 6.54004e-05
2 *3535:A 0
3 *213:15 0.00143057
4 *213:9 0.00371666
5 *213:7 0.00235149
6 *213:7 data_out[57] 0
7 *213:7 data_out[58] 2.79993e-05
8 *213:9 data_out[57] 0
9 *213:9 data_out[58] 0
10 *213:15 data_out[58] 0
11 *213:15 *286:10 0.00079374
*RES
1 data_in[58] *213:7 2.21061 
2 *213:7 *213:9 58.746 
3 *213:9 *213:15 49.1885 
4 *213:15 *3535:A 9.24915 
*END

*D_NET *214 0.0088089
*CONN
*P data_in[59] I
*I *3536:A I *D sky130_fd_sc_hd__clkdlybuf4s50_1
*CAP
1 data_in[59] 0.00350058
2 *3536:A 8.19584e-05
3 *214:5 0.00358254
4 *214:5 data_out[59] 0.00164141
5 *214:5 *288:10 0
6 *65:8 *3536:A 2.41274e-06
*RES
1 data_in[59] *214:5 103.276 
2 *214:5 *3536:A 15.5817 
*END

*D_NET *215 0.00931375
*CONN
*P data_in[5] I
*I *3537:A I *D sky130_fd_sc_hd__clkdlybuf4s50_1
*CAP
1 data_in[5] 0.00309916
2 *3537:A 0.000147189
3 *215:5 0.00324635
4 *215:5 data_out[5] 0.00282106
*RES
1 data_in[5] *215:5 103.276 
2 *215:5 *3537:A 17.2456 
*END

*D_NET *216 0.00877
*CONN
*P data_in[60] I
*I *3538:A I *D sky130_fd_sc_hd__clkdlybuf4s50_1
*CAP
1 data_in[60] 0.00175795
2 *3538:A 0
3 *216:9 0.00180635
4 *216:5 0.0035643
5 *216:5 data_out[60] 0.00164141
6 *216:9 *288:10 0
7 *216:9 *290:10 0
*RES
1 data_in[60] *216:5 59.491 
2 *216:5 *216:9 45.8121 
3 *216:9 *3538:A 13.7491 
*END

*D_NET *217 0.0086616
*CONN
*P data_in[61] I
*I *3539:A I *D sky130_fd_sc_hd__clkdlybuf4s50_1
*CAP
1 data_in[61] 7.17541e-05
2 *3539:A 0
3 *217:13 0.00188039
4 *217:9 0.00420149
5 *217:7 0.00239285
6 *217:7 data_out[60] 0
7 *217:7 data_out[61] 8.95978e-06
8 *217:7 *291:8 0
9 *217:9 data_out[60] 0
10 *217:9 *291:8 0
11 *217:13 *290:10 0
12 *132:29 *217:13 0.000106165
*RES
1 data_in[61] *217:7 2.21061 
2 *217:7 *217:9 58.746 
3 *217:9 *217:13 48.4257 
4 *217:13 *3539:A 13.7491 
*END

*D_NET *218 0.0102453
*CONN
*P data_in[62] I
*I *3540:A I *D sky130_fd_sc_hd__clkdlybuf4s50_1
*CAP
1 data_in[62] 0.00176108
2 *3540:A 0
3 *218:9 0.00127904
4 *218:5 0.00304013
5 *218:5 data_out[62] 0.00164141
6 *218:5 *291:8 0
7 *218:9 data_out[62] 0
8 *218:9 *291:8 0.0025236
*RES
1 data_in[62] *218:5 59.491 
2 *218:5 *218:9 46.9357 
3 *218:9 *3540:A 13.7491 
*END

*D_NET *219 0.00801912
*CONN
*P data_in[63] I
*I *3541:A I *D sky130_fd_sc_hd__clkdlybuf4s50_1
*CAP
1 data_in[63] 0.00230509
2 *3541:A 0
3 *219:11 0.00169047
4 *219:5 0.00399556
5 *219:5 data_out[62] 0
6 *219:5 data_out[63] 2.79993e-05
7 *219:5 *293:10 0
8 *219:11 data_out[62] 0
9 *219:11 *293:10 0
*RES
1 data_in[63] *219:5 59.491 
2 *219:5 *219:11 47.4053 
3 *219:11 *3541:A 9.24915 
*END

*D_NET *220 0.00906642
*CONN
*P data_in[6] I
*I *3542:A I *D sky130_fd_sc_hd__clkdlybuf4s50_1
*CAP
1 data_in[6] 0.00316844
2 *3542:A 0.000149334
3 *220:5 0.00331777
4 *220:5 data_out[6] 0.00164141
5 *220:5 *294:10 0.000787052
6 *71:8 *3542:A 2.41274e-06
*RES
1 data_in[6] *220:5 103.276 
2 *220:5 *3542:A 17.2456 
*END

*D_NET *221 0.00879467
*CONN
*P data_in[7] I
*I *3543:A I *D sky130_fd_sc_hd__clkdlybuf4s50_1
*CAP
1 data_in[7] 0.00349818
2 *3543:A 7.84524e-05
3 *221:5 0.00357663
4 *221:5 data_out[6] 0
5 *221:5 data_out[7] 0.00164141
6 *221:5 *294:10 0
7 *221:5 *295:10 0
*RES
1 data_in[7] *221:5 103.276 
2 *221:5 *3543:A 15.5817 
*END

*D_NET *222 0.010402
*CONN
*P data_in[8] I
*I *3544:A I *D sky130_fd_sc_hd__clkdlybuf4s50_1
*CAP
1 data_in[8] 0.00136097
2 *3544:A 0
3 *222:11 0.00129107
4 *222:5 0.00265203
5 *222:5 data_out[8] 0.00164141
6 *222:5 *227:7 2.79993e-05
7 *222:5 *227:9 0.0010042
8 *222:11 *227:9 0.00242433
9 *222:11 *296:10 0
*RES
1 data_in[8] *222:5 59.491 
2 *222:5 *222:11 49.7503 
3 *222:11 *3544:A 9.24915 
*END

*D_NET *223 0.00881086
*CONN
*P data_in[9] I
*I *3545:A I *D sky130_fd_sc_hd__clkdlybuf4s50_1
*CAP
1 data_in[9] 0.00175755
2 *3545:A 0
3 *223:11 0.00143202
4 *223:5 0.00318958
5 *223:5 data_out[8] 0
6 *223:5 data_out[9] 0.00164141
7 *223:11 data_out[9] 0.000790296
8 *223:11 *296:10 0
*RES
1 data_in[9] *223:5 59.491 
2 *223:5 *223:11 49.1885 
3 *223:11 *3545:A 9.24915 
*END

*D_NET *234 0.00863336
*CONN
*P data_out[0] O
*I *3556:X O *D sky130_fd_sc_hd__clkdlybuf4s50_1
*CAP
1 data_out[0] 0.00231652
2 *3556:X 0
3 *234:10 0.00390644
4 *234:6 0.00158992
5 *234:10 *245:10 0
6 *307:din[0] *234:10 2.12377e-05
7 *307:wmask[0] *234:10 0
8 *160:11 data_out[0] 5.50136e-06
9 *160:13 *234:10 0
10 *171:7 data_out[0] 0
11 *171:9 data_out[0] 0
12 *171:9 *234:10 0.00079374
13 *226:5 data_out[0] 0
14 *226:11 *234:10 0
*RES
1 *3556:X *234:6 13.7491 
2 *234:6 *234:10 48.8654 
3 *234:10 data_out[0] 59.491 
*END

*D_NET *235 0.00864053
*CONN
*P data_out[10] O
*I *3557:X O *D sky130_fd_sc_hd__clkdlybuf4s50_1
*CAP
1 data_out[10] 0.00414064
2 *3557:X 0.000129581
3 *235:8 0.00427022
4 *12:10 data_out[10] 6.96846e-05
5 *76:31 *235:8 2.41274e-06
6 *161:7 data_out[10] 2.79993e-05
7 *161:9 data_out[10] 0
8 *162:9 data_out[10] 0
*RES
1 *3557:X *235:8 15.5817 
2 *235:8 data_out[10] 105.767 
*END

*D_NET *236 0.00919303
*CONN
*P data_out[11] O
*I *3558:X O *D sky130_fd_sc_hd__clkdlybuf4s50_1
*CAP
1 data_out[11] 0.00359548
2 *3558:X 0.00016533
3 *236:8 0.00376081
4 *13:10 data_out[11] 2.99929e-05
5 *162:5 data_out[11] 0.00164141
6 *162:9 data_out[11] 0
7 *163:7 data_out[11] 0
8 *163:9 data_out[11] 0
9 *163:15 data_out[11] 0
*RES
1 *3558:X *236:8 16.1364 
2 *236:8 data_out[11] 105.767 
*END

*D_NET *237 0.00851091
*CONN
*P data_out[12] O
*I *3559:X O *D sky130_fd_sc_hd__clkdlybuf4s50_1
*CAP
1 data_out[12] 6.66632e-05
2 *3559:X 0
3 *237:12 0.00235177
4 *237:10 0.00417479
5 *237:6 0.00188969
6 *14:10 *237:10 0
7 *15:8 *237:10 0
8 *163:7 data_out[12] 2.79993e-05
9 *163:9 *237:12 0
10 *163:15 *237:10 0
11 *164:5 *237:10 0
12 *164:5 *237:12 0
*RES
1 *3559:X *237:6 13.7491 
2 *237:6 *237:10 47.7418 
3 *237:10 *237:12 58.746 
4 *237:12 data_out[12] 2.21061 
*END

*D_NET *238 0.00895872
*CONN
*P data_out[13] O
*I *3560:X O *D sky130_fd_sc_hd__clkdlybuf4s50_1
*CAP
1 data_out[13] 0.00175783
2 *3560:X 0
3 *238:10 0.00358735
4 *238:6 0.00182952
5 *15:8 *238:10 0.000142607
6 *164:5 data_out[13] 0.00164141
7 *164:5 *238:10 0
8 *165:9 *238:10 0
*RES
1 *3560:X *238:6 13.7491 
2 *238:6 *238:10 47.7418 
3 *238:10 data_out[13] 59.491 
*END

*D_NET *239 0.00835628
*CONN
*P data_out[14] O
*I *3561:X O *D sky130_fd_sc_hd__clkdlybuf4s50_1
*CAP
1 data_out[14] 0.000107927
2 *3561:X 0
3 *239:12 0.00242788
4 *239:10 0.00405621
5 *239:6 0.00173626
6 *165:5 data_out[14] 2.79993e-05
7 *165:5 *239:12 0
8 *165:9 *239:10 0
9 *166:5 data_out[14] 0
10 *166:5 *239:10 0
11 *166:5 *239:12 0
*RES
1 *3561:X *239:6 13.7491 
2 *239:6 *239:10 43.858 
3 *239:10 *239:12 58.746 
4 *239:12 data_out[14] 3.33423 
*END

*D_NET *240 0.00894388
*CONN
*P data_out[15] O
*I *3562:X O *D sky130_fd_sc_hd__clkdlybuf4s50_1
*CAP
1 data_out[15] 0.00175783
2 *3562:X 0
3 *240:10 0.00364225
4 *240:6 0.00188442
5 *17:10 *240:10 1.79672e-05
6 *166:5 data_out[15] 0.00164141
7 *166:5 *240:10 0
8 *228:5 data_out[15] 0
9 *228:9 *240:10 0
*RES
1 *3562:X *240:6 13.7491 
2 *240:6 *240:10 47.7418 
3 *240:10 data_out[15] 59.491 
*END

*D_NET *241 0.00926343
*CONN
*P data_out[16] O
*I *3563:X O *D sky130_fd_sc_hd__clkdlybuf4s50_1
*CAP
1 data_out[16] 0.00318192
2 *3563:X 0
3 *241:6 0.00318192
4 *18:10 data_out[16] 7.50722e-05
5 *19:10 data_out[16] 0
6 *167:5 data_out[16] 0.00282451
7 *168:5 data_out[16] 0
8 *168:9 data_out[16] 0
9 *228:9 data_out[16] 0
*RES
1 *3563:X *241:6 13.7491 
2 *241:6 data_out[16] 105.767 
*END

*D_NET *242 0.00917145
*CONN
*P data_out[17] O
*I *3564:X O *D sky130_fd_sc_hd__clkdlybuf4s50_1
*CAP
1 data_out[17] 0.00362898
2 *3564:X 0.000127057
3 *242:8 0.00375604
4 *19:10 data_out[17] 1.79672e-05
5 *168:5 data_out[17] 0.00164141
6 *169:9 data_out[17] 0
*RES
1 *3564:X *242:8 15.5817 
2 *242:8 data_out[17] 105.767 
*END

*D_NET *243 0.00903937
*CONN
*P data_out[18] O
*I *3565:X O *D sky130_fd_sc_hd__clkdlybuf4s50_1
*CAP
1 data_out[18] 0.00359106
2 *3565:X 9.29169e-05
3 *243:8 0.00368398
4 *307:din[18] data_out[18] 3.00073e-05
5 *169:5 data_out[18] 0.00164141
6 *169:9 data_out[18] 0
*RES
1 *3565:X *243:8 15.0271 
2 *243:8 data_out[18] 105.767 
*END

*D_NET *244 0.00901108
*CONN
*P data_out[19] O
*I *3566:X O *D sky130_fd_sc_hd__clkdlybuf4s50_1
*CAP
1 data_out[19] 0.00175783
2 *3566:X 0
3 *244:10 0.00368483
4 *244:6 0.001927
5 *21:10 *244:10 0
6 *23:10 *244:10 0
7 *170:5 data_out[19] 0.00164141
8 *172:5 data_out[19] 0
9 *172:9 *244:10 0
*RES
1 *3566:X *244:6 13.7491 
2 *244:6 *244:10 47.7418 
3 *244:10 data_out[19] 59.491 
*END

*D_NET *245 0.00881276
*CONN
*P data_out[1] O
*I *3567:X O *D sky130_fd_sc_hd__clkdlybuf4s50_1
*CAP
1 data_out[1] 4.63043e-05
2 *3567:X 0.000133391
3 *245:10 0.00422414
4 *245:8 0.00431123
5 *22:8 *245:10 6.96979e-05
6 *171:7 data_out[1] 2.79993e-05
7 *171:9 *245:10 0
8 *234:10 *245:10 0
*RES
1 *3567:X *245:8 15.5817 
2 *245:8 *245:10 105.022 
3 *245:10 data_out[1] 1.6488 
*END

*D_NET *246 0.00934531
*CONN
*P data_out[20] O
*I *3568:X O *D sky130_fd_sc_hd__clkdlybuf4s50_1
*CAP
1 data_out[20] 0.00175795
2 *3568:X 0
3 *246:10 0.00182484
4 *246:8 0.0020418
5 *246:6 0.00197491
6 *23:10 *246:8 0.000104403
7 *172:5 data_out[20] 0.00164141
8 *172:9 *246:8 0
9 *173:9 data_out[20] 0
10 *173:15 *246:8 0
*RES
1 *3568:X *246:6 13.7491 
2 *246:6 *246:8 51.015 
3 *246:8 *246:10 1.85642 
4 *246:10 data_out[20] 59.491 
*END

*D_NET *247 0.00845668
*CONN
*P data_out[21] O
*I *3569:X O *D sky130_fd_sc_hd__clkdlybuf4s50_1
*CAP
1 data_out[21] 0.00230509
2 *3569:X 0
3 *247:10 0.00420372
4 *247:6 0.00189864
5 *24:8 *247:10 2.12377e-05
6 *25:10 *247:10 0
7 *173:7 data_out[21] 2.79993e-05
8 *173:9 data_out[21] 0
9 *173:15 *247:10 0
10 *174:5 *247:10 0
*RES
1 *3569:X *247:6 13.7491 
2 *247:6 *247:10 48.3036 
3 *247:10 data_out[21] 59.491 
*END

*D_NET *248 0.00910612
*CONN
*P data_out[22] O
*I *3570:X O *D sky130_fd_sc_hd__clkdlybuf4s50_1
*CAP
1 data_out[22] 0.00175795
2 *3570:X 0
3 *248:10 0.00333549
4 *248:6 0.00157754
5 *25:10 *248:10 0
6 *26:10 *248:10 0
7 *174:5 data_out[22] 0.00164141
8 *174:5 *248:10 0
9 *175:7 data_out[22] 0
10 *175:9 data_out[22] 0
11 *175:15 *248:10 0.00079374
*RES
1 *3570:X *248:6 13.7491 
2 *248:6 *248:10 48.3036 
3 *248:10 data_out[22] 59.491 
*END

*D_NET *249 0.00897696
*CONN
*P data_out[23] O
*I *3571:X O *D sky130_fd_sc_hd__clkdlybuf4s50_1
*CAP
1 data_out[23] 0.000107927
2 *3571:X 0
3 *249:12 0.00239303
4 *249:10 0.00377248
5 *249:6 0.00148738
6 *144:10 *249:10 0
7 *175:7 data_out[23] 2.79993e-05
8 *175:9 *249:12 0
9 *176:5 *249:10 0
10 *229:5 data_out[23] 0
11 *229:5 *249:12 0
12 *229:11 *249:10 0.00118814
*RES
1 *3571:X *249:6 13.7491 
2 *249:6 *249:10 47.7418 
3 *249:10 *249:12 58.746 
4 *249:12 data_out[23] 3.33423 
*END

*D_NET *250 0.00897938
*CONN
*P data_out[24] O
*I *3572:X O *D sky130_fd_sc_hd__clkdlybuf4s50_1
*CAP
1 data_out[24] 0.00175795
2 *3572:X 0
3 *250:10 0.00366898
4 *250:6 0.00191104
5 *176:5 data_out[24] 0.00164141
6 *176:5 *250:10 0
7 *177:5 data_out[24] 0
8 *177:9 *250:10 0
*RES
1 *3572:X *250:6 13.7491 
2 *250:6 *250:10 48.3036 
3 *250:10 data_out[24] 59.491 
*END

*D_NET *251 0.0104429
*CONN
*P data_out[25] O
*I *3573:X O *D sky130_fd_sc_hd__clkdlybuf4s50_1
*CAP
1 data_out[25] 0.00175867
2 *3573:X 0
3 *251:10 0.00321262
4 *251:6 0.00145395
5 *177:5 data_out[25] 0.00164141
6 *178:9 *251:10 0.00237627
*RES
1 *3573:X *251:6 13.7491 
2 *251:6 *251:10 47.2288 
3 *251:10 data_out[25] 59.491 
*END

*D_NET *252 0.00860491
*CONN
*P data_out[26] O
*I *3574:X O *D sky130_fd_sc_hd__clkdlybuf4s50_1
*CAP
1 data_out[26] 0.000147124
2 *3574:X 0
3 *252:8 0.00429797
4 *252:6 0.00415085
5 *252:8 data_out[27] 0
6 *29:8 *252:8 0
7 *178:5 data_out[26] 8.95978e-06
8 *178:5 *252:8 0
9 *179:5 *252:8 0
10 *179:11 *252:8 0
*RES
1 *3574:X *252:6 13.7491 
2 *252:6 *252:8 105.645 
3 *252:8 data_out[26] 12.7895 
*END

*D_NET *253 0.00919701
*CONN
*P data_out[27] O
*I *3575:X O *D sky130_fd_sc_hd__clkdlybuf4s50_1
*CAP
1 data_out[27] 0.00324435
2 *3575:X 9.29169e-05
3 *253:8 0.00333727
4 *307:din[27] data_out[27] 0.000210687
5 *179:5 data_out[27] 0.00164141
6 *179:11 data_out[27] 0.00067038
7 *180:5 data_out[27] 0
8 *180:13 data_out[27] 0
9 *252:8 data_out[27] 0
*RES
1 *3575:X *253:8 15.0271 
2 *253:8 data_out[27] 105.767 
*END

*D_NET *254 0.0090454
*CONN
*P data_out[28] O
*I *3576:X O *D sky130_fd_sc_hd__clkdlybuf4s50_1
*CAP
1 data_out[28] 0.000147124
2 *3576:X 0
3 *254:8 0.00392415
4 *254:6 0.00377702
5 *31:8 *254:8 0
6 *32:10 *254:8 0
7 *180:5 data_out[28] 8.95978e-06
8 *180:5 *254:8 0
9 *181:5 *254:8 0
10 *181:9 *254:8 0.00118814
*RES
1 *3576:X *254:6 13.7491 
2 *254:6 *254:8 105.645 
3 *254:8 data_out[28] 12.7895 
*END

*D_NET *255 0.00933727
*CONN
*P data_out[29] O
*I *3577:X O *D sky130_fd_sc_hd__clkdlybuf4s50_1
*CAP
1 data_out[29] 0.00175795
2 *3577:X 0
3 *255:10 0.00182484
4 *255:8 0.00208999
5 *255:6 0.00202309
6 *32:10 *255:8 0
7 *34:10 *255:8 0
8 *181:5 data_out[29] 0.00164141
9 *181:9 *255:8 0
10 *183:9 *255:8 0
*RES
1 *3577:X *255:6 13.7491 
2 *255:6 *255:8 51.015 
3 *255:8 *255:10 1.85642 
4 *255:10 data_out[29] 59.491 
*END

*D_NET *256 0.0100393
*CONN
*P data_out[2] O
*I *3578:X O *D sky130_fd_sc_hd__clkdlybuf4s50_1
*CAP
1 data_out[2] 0.00376415
2 *3578:X 0.000203087
3 *256:8 0.00396724
4 *33:10 data_out[2] 0.000463398
5 *108:29 data_out[2] 0
6 *182:5 data_out[2] 0.00164141
7 *182:9 data_out[2] 0
8 *193:13 data_out[2] 0
*RES
1 *3578:X *256:8 16.691 
2 *256:8 data_out[2] 112.411 
*END

*D_NET *257 0.00893644
*CONN
*P data_out[30] O
*I *3579:X O *D sky130_fd_sc_hd__clkdlybuf4s50_1
*CAP
1 data_out[30] 0.00175783
2 *3579:X 0
3 *257:10 0.00364752
4 *257:6 0.00188969
5 *34:10 *257:10 0
6 *35:10 *257:10 0
7 *183:5 data_out[30] 0.00164141
8 *183:9 *257:10 0
9 *184:5 data_out[30] 0
10 *184:5 *257:10 0
*RES
1 *3579:X *257:6 13.7491 
2 *257:6 *257:10 47.7418 
3 *257:10 data_out[30] 59.491 
*END

*D_NET *258 0.00894635
*CONN
*P data_out[31] O
*I *3580:X O *D sky130_fd_sc_hd__clkdlybuf4s50_1
*CAP
1 data_out[31] 0.00175783
2 *3580:X 0
3 *258:10 0.00363573
4 *258:6 0.0018779
5 *35:10 *258:10 3.34802e-05
6 *184:5 data_out[31] 0.00164141
7 *184:5 *258:10 0
8 *230:11 data_out[31] 0
9 *230:13 data_out[31] 0
10 *230:13 *258:10 0
*RES
1 *3580:X *258:6 13.7491 
2 *258:6 *258:10 47.7418 
3 *258:10 data_out[31] 59.491 
*END

*D_NET *259 0.00850719
*CONN
*P data_out[32] O
*I *3581:X O *D sky130_fd_sc_hd__clkdlybuf4s50_1
*CAP
1 data_out[32] 6.66632e-05
2 *3581:X 0
3 *259:12 0.00235149
4 *259:10 0.0041354
5 *259:6 0.00185057
6 *36:10 *259:10 7.50722e-05
7 *37:10 *259:10 0
8 *185:7 data_out[32] 2.79993e-05
9 *185:9 *259:12 0
10 *185:15 *259:10 0
11 *186:5 *259:10 0
12 *186:5 *259:12 0
13 *230:13 *259:10 0
*RES
1 *3581:X *259:6 13.7491 
2 *259:6 *259:10 47.18 
3 *259:10 *259:12 58.746 
4 *259:12 data_out[32] 2.21061 
*END

*D_NET *260 0.0103981
*CONN
*P data_out[33] O
*I *3582:X O *D sky130_fd_sc_hd__clkdlybuf4s50_1
*CAP
1 data_out[33] 0.00175795
2 *3582:X 0
3 *260:10 0.00309049
4 *260:6 0.00133254
5 *37:10 *260:10 0
6 *38:8 *260:10 0
7 *186:5 data_out[33] 0.00164141
8 *186:5 *260:10 0
9 *187:5 data_out[33] 0
10 *187:9 *260:10 0.00257569
*RES
1 *3582:X *260:6 13.7491 
2 *260:6 *260:10 48.3036 
3 *260:10 data_out[33] 59.491 
*END

*D_NET *261 0.00954022
*CONN
*P data_out[34] O
*I *3583:X O *D sky130_fd_sc_hd__clkdlybuf4s50_1
*CAP
1 data_out[34] 0.00179364
2 *3583:X 8.94456e-05
3 *261:12 0.00385996
4 *261:8 0.00215576
5 *38:8 *261:12 0
6 *187:5 data_out[34] 0.00164141
*RES
1 *3583:X *261:8 15.0271 
2 *261:8 *261:12 49.4272 
3 *261:12 data_out[34] 59.491 
*END

*D_NET *262 0.00855548
*CONN
*P data_out[35] O
*I *3584:X O *D sky130_fd_sc_hd__clkdlybuf4s50_1
*CAP
1 data_out[35] 3.07503e-05
2 *3584:X 0
3 *262:8 0.0037176
4 *262:6 0.00368685
5 *307:din[35] *262:8 1.05746e-05
6 *188:5 data_out[35] 8.95978e-06
7 *188:5 *262:8 0.00110074
8 *188:11 *262:8 0
9 *189:5 data_out[35] 0
10 *189:5 *262:8 0
11 *189:11 *262:8 0
*RES
1 *3584:X *262:6 13.7491 
2 *262:6 *262:8 105.645 
3 *262:8 data_out[35] 1.02592 
*END

*D_NET *263 0.0093957
*CONN
*P data_out[36] O
*I *3585:X O *D sky130_fd_sc_hd__clkdlybuf4s50_1
*CAP
1 data_out[36] 0.00326842
2 *3585:X 0.000213577
3 *263:8 0.003482
4 *307:din[36] data_out[36] 0
5 *189:5 data_out[36] 0.00164141
6 *189:11 data_out[36] 0.000790296
7 *190:9 data_out[36] 0
*RES
1 *3585:X *263:8 16.691 
2 *263:8 data_out[36] 105.767 
*END

*D_NET *264 0.0090086
*CONN
*P data_out[37] O
*I *3586:X O *D sky130_fd_sc_hd__clkdlybuf4s50_1
*CAP
1 data_out[37] 0.00175783
2 *3586:X 0
3 *264:10 0.00367461
4 *264:6 0.00191678
5 *41:10 *264:10 1.79672e-05
6 *42:10 *264:10 0
7 *190:5 data_out[37] 0.00164141
8 *191:9 *264:10 0
*RES
1 *3586:X *264:6 13.7491 
2 *264:6 *264:10 47.7418 
3 *264:10 data_out[37] 59.491 
*END

*D_NET *265 0.00929684
*CONN
*P data_out[38] O
*I *3587:X O *D sky130_fd_sc_hd__clkdlybuf4s50_1
*CAP
1 data_out[38] 0.00175783
2 *3587:X 0
3 *265:10 0.00180448
4 *265:8 0.00206989
5 *265:6 0.00202324
6 *3588:A *265:8 0
7 *42:10 *265:8 0
8 *43:12 *265:8 0
9 *191:5 data_out[38] 0.00164141
10 *191:9 *265:8 0
11 *192:5 data_out[38] 0
12 *192:5 *265:8 0
*RES
1 *3587:X *265:6 13.7491 
2 *265:6 *265:8 51.015 
3 *265:8 *265:10 1.29461 
4 *265:10 data_out[38] 59.491 
*END

*D_NET *266 0.00906607
*CONN
*P data_out[39] O
*I *3588:X O *D sky130_fd_sc_hd__clkdlybuf4s50_1
*CAP
1 data_out[39] 0.00175867
2 *3588:X 0
3 *266:10 0.00371233
4 *266:6 0.00195366
5 *43:12 *266:10 0
6 *192:5 data_out[39] 0.00164141
7 *192:5 *266:10 0
8 *231:5 data_out[39] 0
9 *231:9 *266:10 0
*RES
1 *3588:X *266:6 13.7491 
2 *266:6 *266:10 49.4272 
3 *266:10 data_out[39] 59.491 
*END

*D_NET *267 0.00852104
*CONN
*P data_out[3] O
*I *3589:X O *D sky130_fd_sc_hd__clkdlybuf4s50_1
*CAP
1 data_out[3] 6.66632e-05
2 *3589:X 5.06975e-05
3 *267:10 0.00419582
4 *267:8 0.00417986
5 *44:10 *267:10 0
6 *55:8 *267:10 0
7 *193:7 data_out[3] 2.79993e-05
8 *193:9 *267:10 0
9 *193:13 *267:10 0
10 *204:5 data_out[3] 0
11 *204:5 *267:10 0
*RES
1 *3589:X *267:8 14.4725 
2 *267:8 *267:10 105.022 
3 *267:10 data_out[3] 2.21061 
*END

*D_NET *268 0.0089842
*CONN
*P data_out[40] O
*I *3590:X O *D sky130_fd_sc_hd__clkdlybuf4s50_1
*CAP
1 data_out[40] 0.00175795
2 *3590:X 0
3 *268:10 0.0036714
4 *268:6 0.00191345
5 *45:12 *268:10 0
6 *194:5 data_out[40] 0.00164141
7 *194:5 *268:10 0
8 *195:9 data_out[40] 0
9 *195:9 *268:10 0
10 *231:9 *268:10 0
*RES
1 *3590:X *268:6 13.7491 
2 *268:6 *268:10 48.3036 
3 *268:10 data_out[40] 59.491 
*END

*D_NET *269 0.00859063
*CONN
*P data_out[41] O
*I *3591:X O *D sky130_fd_sc_hd__clkdlybuf4s50_1
*CAP
1 data_out[41] 0.00234656
2 *3591:X 0
3 *269:10 0.00428185
4 *269:6 0.00193529
5 *46:10 *269:10 1.79672e-05
6 *47:10 *269:10 0
7 *195:7 data_out[41] 8.95978e-06
8 *195:9 data_out[41] 0
9 *196:5 data_out[41] 0
10 *196:11 *269:10 0
*RES
1 *3591:X *269:6 13.7491 
2 *269:6 *269:10 48.3036 
3 *269:10 data_out[41] 59.491 
*END

*D_NET *270 0.00911014
*CONN
*P data_out[42] O
*I *3592:X O *D sky130_fd_sc_hd__clkdlybuf4s50_1
*CAP
1 data_out[42] 0.00175795
2 *3592:X 0
3 *270:10 0.0033375
4 *270:6 0.00157955
5 *47:10 *270:10 0
6 *48:10 *270:10 0
7 *196:5 data_out[42] 0.00164141
8 *196:11 *270:10 0
9 *197:9 *270:10 0.00079374
*RES
1 *3592:X *270:6 13.7491 
2 *270:6 *270:10 48.3036 
3 *270:10 data_out[42] 59.491 
*END

*D_NET *271 0.0092831
*CONN
*P data_out[43] O
*I *3593:X O *D sky130_fd_sc_hd__clkdlybuf4s50_1
*CAP
1 data_out[43] 7.10789e-05
2 *3593:X 8.94456e-05
3 *271:10 0.00398005
4 *271:8 0.00399842
5 *197:5 data_out[43] 8.95978e-06
6 *197:5 *271:10 0
7 *198:5 data_out[43] 0
8 *198:5 *271:10 0
9 *198:9 *271:10 0.00113515
*RES
1 *3593:X *271:8 15.0271 
2 *271:8 *271:10 105.645 
3 *271:10 data_out[43] 2.14954 
*END

*D_NET *272 0.00894155
*CONN
*P data_out[44] O
*I *3594:X O *D sky130_fd_sc_hd__clkdlybuf4s50_1
*CAP
1 data_out[44] 0.00175783
2 *3594:X 0
3 *272:10 0.00363333
4 *272:6 0.0018755
5 *49:10 *272:10 3.34802e-05
6 *198:5 data_out[44] 0.00164141
7 *198:9 *272:10 0
8 *199:11 *272:10 0
*RES
1 *3594:X *272:6 13.7491 
2 *272:6 *272:10 47.7418 
3 *272:10 data_out[44] 59.491 
*END

*D_NET *273 0.00918886
*CONN
*P data_out[45] O
*I *3595:X O *D sky130_fd_sc_hd__clkdlybuf4s50_1
*CAP
1 data_out[45] 0.00353835
2 *3595:X 9.87368e-05
3 *273:8 0.00363709
4 *50:10 data_out[45] 0.000273277
5 *199:5 data_out[45] 0.00164141
6 *199:11 data_out[45] 0
7 *200:9 data_out[45] 0
*RES
1 *3595:X *273:8 15.0271 
2 *273:8 data_out[45] 105.767 
*END

*D_NET *274 0.00897739
*CONN
*P data_out[46] O
*I *3596:X O *D sky130_fd_sc_hd__clkdlybuf4s50_1
*CAP
1 data_out[46] 0.00175795
2 *3596:X 0
3 *274:10 0.00366799
4 *274:6 0.00191005
5 *51:10 *274:10 0
6 *52:12 *274:10 0
7 *200:5 data_out[46] 0.00164141
8 *200:9 *274:10 0
9 *201:5 data_out[46] 0
10 *201:9 *274:10 0
*RES
1 *3596:X *274:6 13.7491 
2 *274:6 *274:10 48.3036 
3 *274:10 data_out[46] 59.491 
*END

*D_NET *275 0.0109113
*CONN
*P data_out[47] O
*I *3597:X O *D sky130_fd_sc_hd__clkdlybuf4s50_1
*CAP
1 data_out[47] 0.00175867
2 *3597:X 0
3 *275:10 0.00184581
4 *275:8 0.00147629
5 *275:6 0.00138916
6 *52:12 *275:8 0
7 *147:10 *275:8 0
8 *201:5 data_out[47] 0.00164141
9 *201:9 *275:8 0
10 *202:13 data_out[47] 0
11 *202:13 *275:8 0.00279993
12 *232:5 data_out[47] 0
*RES
1 *3597:X *275:6 13.7491 
2 *275:6 *275:8 51.015 
3 *275:8 *275:10 2.41823 
4 *275:10 data_out[47] 59.491 
*END

*D_NET *276 0.00903803
*CONN
*P data_out[48] O
*I *3598:X O *D sky130_fd_sc_hd__clkdlybuf4s50_1
*CAP
1 data_out[48] 0.00231652
2 *3598:X 0
3 *276:10 0.00240365
4 *276:8 0.00219975
5 *276:6 0.00211261
6 *53:10 *276:8 0
7 *54:10 *276:8 0
8 *147:10 *276:8 0
9 *202:11 data_out[48] 5.50136e-06
10 *203:9 data_out[48] 0
11 *203:9 *276:8 0
12 *232:5 data_out[48] 0
13 *232:5 *276:8 0
*RES
1 *3598:X *276:6 13.7491 
2 *276:6 *276:8 53.0912 
3 *276:8 *276:10 2.41823 
4 *276:10 data_out[48] 59.491 
*END

*D_NET *277 0.00875246
*CONN
*P data_out[49] O
*I *3599:X O *D sky130_fd_sc_hd__clkdlybuf4s50_1
*CAP
1 data_out[49] 0.0023047
2 *3599:X 0
3 *277:10 0.0023311
4 *277:8 0.00200533
5 *277:6 0.00197893
6 *54:10 *277:8 0.000104403
7 *120:15 *277:8 0
8 *203:7 data_out[49] 2.79993e-05
9 *203:9 data_out[49] 0
10 *203:9 *277:8 0
11 *205:7 data_out[49] 0
*RES
1 *3599:X *277:6 13.7491 
2 *277:6 *277:8 51.015 
3 *277:8 *277:10 0.732798 
4 *277:10 data_out[49] 59.491 
*END

*D_NET *278 0.00906652
*CONN
*P data_out[4] O
*I *3600:X O *D sky130_fd_sc_hd__clkdlybuf4s50_1
*CAP
1 data_out[4] 0.00175755
2 *3600:X 0
3 *278:10 0.00327188
4 *278:6 0.00151432
5 *55:8 *278:10 0.00021416
6 *204:5 data_out[4] 0.00164141
7 *204:5 *278:10 0.000667196
*RES
1 *3600:X *278:6 13.7491 
2 *278:6 *278:10 47.18 
3 *278:10 data_out[4] 59.491 
*END

*D_NET *279 0.00936886
*CONN
*P data_out[50] O
*I *3601:X O *D sky130_fd_sc_hd__clkdlybuf4s50_1
*CAP
1 data_out[50] 6.74378e-05
2 *3601:X 0
3 *279:8 0.00326581
4 *279:6 0.00319837
5 *56:10 *279:8 2.99929e-05
6 *205:7 data_out[50] 8.95978e-06
7 *205:7 *279:8 0
8 *205:9 *279:8 0.00279828
9 *206:5 *279:8 0
10 *206:9 *279:8 0
*RES
1 *3601:X *279:6 13.7491 
2 *279:6 *279:8 105.645 
3 *279:8 data_out[50] 10.5711 
*END

*D_NET *280 0.00893107
*CONN
*P data_out[51] O
*I *3602:X O *D sky130_fd_sc_hd__clkdlybuf4s50_1
*CAP
1 data_out[51] 0.00175755
2 *3602:X 0
3 *280:10 0.00360549
4 *280:6 0.00184793
5 *57:28 *280:10 7.86847e-05
6 *206:5 data_out[51] 0.00164141
7 *206:9 *280:10 0
8 *207:9 data_out[51] 0
9 *207:15 *280:10 0
*RES
1 *3602:X *280:6 13.7491 
2 *280:6 *280:10 47.18 
3 *280:10 data_out[51] 59.491 
*END

*D_NET *281 0.00864703
*CONN
*P data_out[52] O
*I *3603:X O *D sky130_fd_sc_hd__clkdlybuf4s50_1
*CAP
1 data_out[52] 4.63043e-05
2 *3603:X 0
3 *281:12 0.00240141
4 *281:10 0.00422387
5 *281:6 0.00186876
6 *281:10 data_out[53] 0
7 *307:din[52] *281:10 7.86847e-05
8 *207:7 data_out[52] 2.79993e-05
9 *207:9 *281:12 0
10 *207:15 *281:10 0
11 *208:5 data_out[52] 0
12 *208:5 *281:12 0
13 *208:11 *281:10 0
*RES
1 *3603:X *281:6 13.7491 
2 *281:6 *281:10 47.7418 
3 *281:10 *281:12 58.746 
4 *281:12 data_out[52] 1.6488 
*END

*D_NET *282 0.00921784
*CONN
*P data_out[53] O
*I *3604:X O *D sky130_fd_sc_hd__clkdlybuf4s50_1
*CAP
1 data_out[53] 0.00326601
2 *3604:X 0.000127057
3 *282:8 0.00339307
4 *307:din[53] data_out[53] 0
5 *208:5 data_out[53] 0.00164141
6 *208:11 data_out[53] 0.000790296
7 *281:10 data_out[53] 0
*RES
1 *3604:X *282:8 15.5817 
2 *282:8 data_out[53] 105.767 
*END

*D_NET *283 0.0109531
*CONN
*P data_out[54] O
*I *3605:X O *D sky130_fd_sc_hd__clkdlybuf4s50_1
*CAP
1 data_out[54] 4.73846e-05
2 *3605:X 0.000141758
3 *283:10 0.00299208
4 *283:8 0.00308645
5 *307:din[53] *283:10 0
6 *307:din[54] *283:10 0
7 *209:5 data_out[54] 2.27728e-05
8 *209:5 *283:10 0.00347958
9 *209:11 *283:10 0.0011831
10 *210:5 data_out[54] 0
11 *210:11 *283:10 0
*RES
1 *3605:X *283:8 15.5817 
2 *283:8 *283:10 105.022 
3 *283:10 data_out[54] 1.6488 
*END

*D_NET *284 0.00898885
*CONN
*P data_out[55] O
*I *3606:X O *D sky130_fd_sc_hd__clkdlybuf4s50_1
*CAP
1 data_out[55] 0.00175795
2 *3606:X 0
3 *284:10 0.00366473
4 *284:6 0.00190679
5 *61:12 *284:10 1.79672e-05
6 *210:5 data_out[55] 0.00164141
7 *210:11 *284:10 0
8 *233:7 data_out[55] 0
9 *233:9 data_out[55] 0
10 *233:9 *284:10 0
*RES
1 *3606:X *284:6 13.7491 
2 *284:6 *284:10 48.3036 
3 *284:10 data_out[55] 59.491 
*END

*D_NET *285 0.00818296
*CONN
*P data_out[56] O
*I *3607:X O *D sky130_fd_sc_hd__clkdlybuf4s50_1
*CAP
1 data_out[56] 0.00175795
2 *3607:X 0
3 *285:10 0.00327078
4 *285:6 0.00151283
5 *211:5 data_out[56] 0.00164141
6 *211:9 *285:10 0
7 *212:11 *285:10 0
*RES
1 *3607:X *285:6 13.7491 
2 *285:6 *285:10 38.3375 
3 *285:10 data_out[56] 59.491 
*END

*D_NET *286 0.00915316
*CONN
*P data_out[57] O
*I *3608:X O *D sky130_fd_sc_hd__clkdlybuf4s50_1
*CAP
1 data_out[57] 0.00175867
2 *3608:X 0
3 *286:10 0.00331729
4 *286:6 0.00155862
5 *286:10 data_out[58] 0
6 *63:8 *286:10 8.34286e-05
7 *64:10 *286:10 0
8 *212:5 data_out[57] 0.00164141
9 *212:11 *286:10 0
10 *213:7 data_out[57] 0
11 *213:9 data_out[57] 0
12 *213:15 *286:10 0.00079374
*RES
1 *3608:X *286:6 13.7491 
2 *286:6 *286:10 48.8654 
3 *286:10 data_out[57] 59.491 
*END

*D_NET *287 0.00836593
*CONN
*P data_out[58] O
*I *3609:X O *D sky130_fd_sc_hd__clkdlybuf4s50_1
*CAP
1 data_out[58] 0.00413143
2 *3609:X 0
3 *287:6 0.00413143
4 *64:10 data_out[58] 7.50722e-05
5 *213:7 data_out[58] 2.79993e-05
6 *213:9 data_out[58] 0
7 *213:15 data_out[58] 0
8 *286:10 data_out[58] 0
*RES
1 *3609:X *287:6 13.7491 
2 *287:6 data_out[58] 105.767 
*END

*D_NET *288 0.00898219
*CONN
*P data_out[59] O
*I *3610:X O *D sky130_fd_sc_hd__clkdlybuf4s50_1
*CAP
1 data_out[59] 0.00175795
2 *3610:X 0
3 *288:10 0.00367039
4 *288:6 0.00191245
5 *307:din[60] *288:10 0
6 *65:10 *288:10 0
7 *214:5 data_out[59] 0.00164141
8 *214:5 *288:10 0
9 *216:9 *288:10 0
*RES
1 *3610:X *288:6 13.7491 
2 *288:6 *288:10 48.3036 
3 *288:10 data_out[59] 59.491 
*END

*D_NET *289 0.00959663
*CONN
*P data_out[5] O
*I *3611:X O *D sky130_fd_sc_hd__clkdlybuf4s50_1
*CAP
1 data_out[5] 0.00325049
2 *3611:X 9.79503e-05
3 *289:8 0.00334844
4 *66:10 data_out[5] 7.86847e-05
5 *215:5 data_out[5] 0.00282106
*RES
1 *3611:X *289:8 15.0271 
2 *289:8 data_out[5] 105.767 
*END

*D_NET *290 0.00895206
*CONN
*P data_out[60] O
*I *3612:X O *D sky130_fd_sc_hd__clkdlybuf4s50_1
*CAP
1 data_out[60] 0.00175783
2 *3612:X 0
3 *290:10 0.00363362
4 *290:6 0.00187579
5 *307:din[60] *290:10 0
6 *132:29 *290:10 4.34007e-05
7 *216:5 data_out[60] 0.00164141
8 *216:9 *290:10 0
9 *217:7 data_out[60] 0
10 *217:9 data_out[60] 0
11 *217:13 *290:10 0
*RES
1 *3612:X *290:6 13.7491 
2 *290:6 *290:10 47.7418 
3 *290:10 data_out[60] 59.491 
*END

*D_NET *291 0.0098005
*CONN
*P data_out[61] O
*I *3613:X O *D sky130_fd_sc_hd__clkdlybuf4s50_1
*CAP
1 data_out[61] 0.000147124
2 *3613:X 0
3 *291:8 0.00363397
4 *291:6 0.00348685
5 *217:7 data_out[61] 8.95978e-06
6 *217:7 *291:8 0
7 *217:9 *291:8 0
8 *218:5 *291:8 0
9 *218:9 *291:8 0.0025236
*RES
1 *3613:X *291:6 13.7491 
2 *291:6 *291:8 102.323 
3 *291:8 data_out[61] 12.7895 
*END

*D_NET *292 0.00914598
*CONN
*P data_out[62] O
*I *3614:X O *D sky130_fd_sc_hd__clkdlybuf4s50_1
*CAP
1 data_out[62] 0.00358769
2 *3614:X 0.000127057
3 *292:8 0.00371475
4 *69:10 data_out[62] 7.50722e-05
5 *218:5 data_out[62] 0.00164141
6 *218:9 data_out[62] 0
7 *219:5 data_out[62] 0
8 *219:11 data_out[62] 0
*RES
1 *3614:X *292:8 15.5817 
2 *292:8 data_out[62] 105.767 
*END

*D_NET *293 0.00887466
*CONN
*P data_out[63] O
*I *3615:X O *D sky130_fd_sc_hd__clkdlybuf4s50_1
*CAP
1 data_out[63] 0.000127687
2 *3615:X 9.79403e-05
3 *293:10 0.00432539
4 *293:8 0.00429564
5 *70:10 *293:10 0
6 *219:5 data_out[63] 2.79993e-05
7 *219:5 *293:10 0
8 *219:11 *293:10 0
*RES
1 *3615:X *293:8 15.0271 
2 *293:8 *293:10 105.022 
3 *293:10 data_out[63] 3.89604 
*END

*D_NET *294 0.00902506
*CONN
*P data_out[6] O
*I *3616:X O *D sky130_fd_sc_hd__clkdlybuf4s50_1
*CAP
1 data_out[6] 0.00175755
2 *3616:X 0
3 *294:10 0.00328932
4 *294:6 0.00153176
5 *71:10 *294:10 1.79672e-05
6 *72:10 *294:10 0
7 *220:5 data_out[6] 0.00164141
8 *220:5 *294:10 0.000787052
9 *221:5 data_out[6] 0
10 *221:5 *294:10 0
*RES
1 *3616:X *294:6 13.7491 
2 *294:6 *294:10 47.18 
3 *294:10 data_out[6] 59.491 
*END

*D_NET *295 0.00914057
*CONN
*P data_out[7] O
*I *3617:X O *D sky130_fd_sc_hd__clkdlybuf4s50_1
*CAP
1 data_out[7] 0.00175867
2 *3617:X 0
3 *295:10 0.00371204
4 *295:6 0.00195337
5 *73:12 *295:10 7.50722e-05
6 *221:5 data_out[7] 0.00164141
7 *221:5 *295:10 0
8 *227:7 data_out[7] 0
9 *227:9 data_out[7] 0
*RES
1 *3617:X *295:6 13.7491 
2 *295:6 *295:10 48.8654 
3 *295:10 data_out[7] 59.491 
*END

*D_NET *296 0.00899144
*CONN
*P data_out[8] O
*I *3618:X O *D sky130_fd_sc_hd__clkdlybuf4s50_1
*CAP
1 data_out[8] 0.00175795
2 *3618:X 0
3 *296:10 0.00367502
4 *296:6 0.00191707
5 *296:10 data_out[9] 0
6 *74:18 *296:10 0
7 *222:5 data_out[8] 0.00164141
8 *222:11 *296:10 0
9 *223:5 data_out[8] 0
10 *223:11 *296:10 0
*RES
1 *3618:X *296:6 13.7491 
2 *296:6 *296:10 48.3036 
3 *296:10 data_out[8] 59.491 
*END

*D_NET *297 0.00934592
*CONN
*P data_out[9] O
*I *3619:X O *D sky130_fd_sc_hd__clkdlybuf4s50_1
*CAP
1 data_out[9] 0.00325424
2 *3619:X 0.00016533
3 *297:8 0.00341957
4 *74:18 data_out[9] 7.50722e-05
5 *161:9 data_out[9] 0
6 *223:5 data_out[9] 0.00164141
7 *223:11 data_out[9] 0.000790296
8 *296:10 data_out[9] 0
*RES
1 *3619:X *297:8 16.1364 
2 *297:8 data_out[9] 105.767 
*END

*D_NET *1 0.00599582
*CONN
*I *307:addr[0] I *D sram22_256x64m4w8
*I *3473:X O *D sky130_fd_sc_hd__clkdlybuf4s50_1
*CAP
1 *307:addr[0] 5.4963e-05
2 *3473:X 0
3 *1:8 0.00299791
4 *1:6 0.00294295
5 *1:8 *9:22 0
*RES
1 *3473:X *1:6 13.7491 
2 *1:6 *1:8 74.0859 
3 *1:8 *307:addr[0] 5.80211 
*END

*D_NET *11 0.0118766
*CONN
*I *307:din[0] I *D sram22_256x64m4w8
*I *3482:X O *D sky130_fd_sc_hd__clkdlybuf4s50_1
*CAP
1 *307:din[0] 0.00177223
2 *3482:X 0.00177223
3 *307:din[0] *307:wmask[0] 0.00433686
4 *307:din[0] *3556:A 0.003974
5 *307:din[0] *86:29 0
6 *307:din[0] *234:10 2.12377e-05
*RES
1 *3482:X *307:din[0] 43.8785 
*END

*D_NET *91 0.00860881
*CONN
*I *3572:A I *D sky130_fd_sc_hd__clkdlybuf4s50_1
*I *307:dout[24] O *D sram22_256x64m4w8
*CAP
1 *3572:A 0
2 *307:dout[24] 0.000126597
3 *91:11 0.00187917
4 *91:9 0.00200577
5 *91:9 *307:wmask[3] 1.90525e-05
6 *91:11 *144:10 0.00414328
7 *307:din[24] *91:9 0.000116033
8 *307:din[24] *91:11 0.000318908
*RES
1 *307:dout[24] *91:9 8.20138 
2 *91:9 *91:11 70.7639 
3 *91:11 *3572:A 13.7491 
*END

*D_NET *92 0.0101816
*CONN
*I *3573:A I *D sky130_fd_sc_hd__clkdlybuf4s50_1
*I *307:dout[25] O *D sram22_256x64m4w8
*CAP
1 *3573:A 0.00429716
2 *307:dout[25] 0.00429716
3 *3573:A *177:9 0
4 *3573:A *178:9 0
5 *307:din[24] *3573:A 0
6 *307:din[25] *3573:A 0.000104027
7 *28:10 *3573:A 0.00148323
*RES
1 *307:dout[25] *3573:A 44.7826 
*END

*D_NET *93 0.0079324
*CONN
*I *3574:A I *D sky130_fd_sc_hd__clkdlybuf4s50_1
*I *307:dout[26] O *D sram22_256x64m4w8
*CAP
1 *3574:A 0.00328246
2 *307:dout[26] 0.00328246
3 *307:din[26] *3574:A 0.00129544
4 *307:din[27] *3574:A 0
5 *29:8 *3574:A 7.20505e-05
*RES
1 *307:dout[26] *3574:A 40.346 
*END

*D_NET *94 0.0100605
*CONN
*I *3575:A I *D sky130_fd_sc_hd__clkdlybuf4s50_1
*I *307:dout[27] O *D sram22_256x64m4w8
*CAP
1 *3575:A 0.00276027
2 *307:dout[27] 0.00276027
3 *307:din[27] *3575:A 0.00453993
4 *29:8 *3575:A 0
*RES
1 *307:dout[27] *3575:A 40.5838 
*END

*D_NET *95 0.00828088
*CONN
*I *3576:A I *D sky130_fd_sc_hd__clkdlybuf4s50_1
*I *307:dout[28] O *D sram22_256x64m4w8
*CAP
1 *3576:A 5.8892e-05
2 *307:dout[28] 5.40332e-05
3 *95:11 0.00197051
4 *95:9 0.00196565
5 *307:din[28] *95:9 6.19844e-05
6 *31:8 *95:11 0.00416982
*RES
1 *307:dout[28] *95:9 6.03887 
2 *95:9 *95:11 71.5944 
3 *95:11 *3576:A 15.0271 
*END

*D_NET *96 0.00782604
*CONN
*I *3577:A I *D sky130_fd_sc_hd__clkdlybuf4s50_1
*I *307:dout[29] O *D sram22_256x64m4w8
*CAP
1 *3577:A 0.00354648
2 *307:dout[29] 0.00354648
3 *307:din[29] *3577:A 6.19844e-05
4 *32:10 *3577:A 0.000671089
*RES
1 *307:dout[29] *3577:A 38.2045 
*END

*D_NET *97 0.00743891
*CONN
*I *3578:A I *D sky130_fd_sc_hd__clkdlybuf4s50_1
*I *307:dout[2] O *D sram22_256x64m4w8
*CAP
1 *3578:A 0
2 *307:dout[2] 0.00139089
3 *97:29 0.0010296
4 *97:25 0.00242049
5 *97:25 *108:25 0
6 *307:din[2] *97:25 9.88922e-05
7 *22:8 *97:29 0
8 *33:10 *97:25 0.000245885
9 *33:10 *97:29 0.00225315
*RES
1 *307:dout[2] *97:25 17.9119 
2 *97:25 *97:29 43.0818 
3 *97:29 *3578:A 9.24915 
*END

*D_NET *98 0.00845295
*CONN
*I *3579:A I *D sky130_fd_sc_hd__clkdlybuf4s50_1
*I *307:dout[30] O *D sram22_256x64m4w8
*CAP
1 *3579:A 0
2 *307:dout[30] 0.00375814
3 *98:31 0.00375814
4 *98:31 *3580:A 0
5 *307:din[30] *98:31 6.19844e-05
6 *34:10 *98:31 0.000874687
*RES
1 *307:dout[30] *98:31 41.8928 
2 *98:31 *3579:A 9.24915 
*END

*D_NET *99 0.00742932
*CONN
*I *3580:A I *D sky130_fd_sc_hd__clkdlybuf4s50_1
*I *307:dout[31] O *D sram22_256x64m4w8
*CAP
1 *3580:A 0.00338146
2 *307:dout[31] 0.00338146
3 *307:din[31] *3580:A 6.19844e-05
4 *35:10 *3580:A 0
5 *35:12 *3580:A 0.000604417
6 *98:31 *3580:A 0
*RES
1 *307:dout[31] *3580:A 48.3855 
*END

*D_NET *100 0.00908141
*CONN
*I *3581:A I *D sky130_fd_sc_hd__clkdlybuf4s50_1
*I *307:dout[32] O *D sram22_256x64m4w8
*CAP
1 *3581:A 0
2 *307:dout[32] 0.00195752
3 *100:29 0.00183944
4 *100:25 0.00379695
5 *100:25 *307:wmask[4] 0.00111524
6 *100:29 *230:13 5.49703e-05
7 *307:din[32] *100:25 6.40358e-05
8 *35:10 *100:29 0
9 *36:10 *100:25 0.000253259
10 *36:10 *100:29 0
*RES
1 *307:dout[32] *100:25 18.5134 
2 *100:25 *100:29 49.7258 
3 *100:29 *3581:A 9.24915 
*END

*D_NET *12 0.00695784
*CONN
*I *307:din[10] I *D sram22_256x64m4w8
*I *3483:X O *D sky130_fd_sc_hd__clkdlybuf4s50_1
*CAP
1 *307:din[10] 5.7603e-05
2 *3483:X 0.000136414
3 *12:10 0.00293892
4 *12:8 0.00301773
5 *307:din[10] *76:31 6.40358e-05
6 *12:10 data_out[10] 6.96846e-05
7 *12:10 *76:31 0.000673446
*RES
1 *3483:X *12:8 15.5817 
2 *12:8 *12:10 73.6706 
3 *12:10 *307:din[10] 6.22409 
*END

*D_NET *101 0.00675788
*CONN
*I *3582:A I *D sky130_fd_sc_hd__clkdlybuf4s50_1
*I *307:dout[33] O *D sram22_256x64m4w8
*CAP
1 *3582:A 0
2 *307:dout[33] 0.00012875
3 *101:15 0.00216483
4 *101:13 0.00229358
5 *101:15 *307:wmask[4] 0.000146784
6 *101:15 *145:10 0
7 *307:din[33] *101:13 0.000112061
8 *36:10 *101:15 0
9 *37:10 *101:15 0.00191188
*RES
1 *307:dout[33] *101:13 8.68364 
2 *101:13 *101:15 70.7639 
3 *101:15 *3582:A 13.7491 
*END

*D_NET *102 0.00621216
*CONN
*I *3583:A I *D sky130_fd_sc_hd__clkdlybuf4s50_1
*I *307:dout[34] O *D sram22_256x64m4w8
*CAP
1 *3583:A 0
2 *307:dout[34] 0.000144606
3 *102:11 0.00226846
4 *102:9 0.00241307
5 *307:din[34] *102:9 0.000108271
6 *37:10 *102:11 0
7 *38:8 *102:11 0.00127775
*RES
1 *307:dout[34] *102:9 8.53896 
2 *102:9 *102:11 70.7639 
3 *102:11 *3583:A 13.7491 
*END

*D_NET *103 0.00725004
*CONN
*I *3584:A I *D sky130_fd_sc_hd__clkdlybuf4s50_1
*I *307:dout[35] O *D sram22_256x64m4w8
*CAP
1 *3584:A 0.00312488
2 *307:dout[35] 0.00312488
3 *307:din[35] *3584:A 0.00100028
4 *38:8 *3584:A 0
*RES
1 *307:dout[35] *3584:A 48.3331 
*END

*D_NET *104 0.00895899
*CONN
*I *3585:A I *D sky130_fd_sc_hd__clkdlybuf4s50_1
*I *307:dout[36] O *D sram22_256x64m4w8
*CAP
1 *3585:A 0.0020249
2 *307:dout[36] 0.0020249
3 *307:din[35] *3585:A 0.00094052
4 *307:din[36] *3585:A 0.00396868
*RES
1 *307:dout[36] *3585:A 47.5268 
*END

*D_NET *105 0.00718103
*CONN
*I *3586:A I *D sky130_fd_sc_hd__clkdlybuf4s50_1
*I *307:dout[37] O *D sram22_256x64m4w8
*CAP
1 *3586:A 0
2 *307:dout[37] 0.00155479
3 *105:29 0.00187093
4 *105:25 0.00342572
5 *105:25 *3587:A 0
6 *307:din[37] *105:25 6.19844e-05
7 *41:10 *105:25 0.000267605
8 *41:10 *105:29 0
*RES
1 *307:dout[37] *105:25 18.1991 
2 *105:25 *105:29 49.7258 
3 *105:29 *3586:A 9.24915 
*END

*D_NET *106 0.00745168
*CONN
*I *3587:A I *D sky130_fd_sc_hd__clkdlybuf4s50_1
*I *307:dout[38] O *D sram22_256x64m4w8
*CAP
1 *3587:A 0.00332856
2 *307:dout[38] 0.00332856
3 *307:din[38] *3587:A 6.19844e-05
4 *41:10 *3587:A 0
5 *42:10 *3587:A 0.000732569
6 *105:25 *3587:A 0
*RES
1 *307:dout[38] *3587:A 44.9114 
*END

*D_NET *107 0.00908517
*CONN
*I *3588:A I *D sky130_fd_sc_hd__clkdlybuf4s50_1
*I *307:dout[39] O *D sram22_256x64m4w8
*CAP
1 *3588:A 0.00388728
2 *307:dout[39] 0.00388728
3 *3588:A *307:wmask[5] 0
4 *3588:A *109:25 0
5 *3588:A *265:8 0
6 *307:din[39] *3588:A 6.19844e-05
7 *43:12 *3588:A 7.20505e-05
8 *43:14 *3588:A 0.00117658
*RES
1 *307:dout[39] *3588:A 40.3261 
*END

*D_NET *108 0.00833418
*CONN
*I *3589:A I *D sky130_fd_sc_hd__clkdlybuf4s50_1
*I *307:dout[3] O *D sram22_256x64m4w8
*CAP
1 *3589:A 0
2 *307:dout[3] 0.00225508
3 *108:29 0.00146843
4 *108:25 0.00372351
5 *108:29 data_out[2] 0
6 *307:din[3] *108:25 6.32197e-05
7 *33:10 *108:29 0
8 *44:10 *108:25 1.55681e-05
9 *44:10 *108:29 0.000808382
10 *97:25 *108:25 0
*RES
1 *307:dout[3] *108:25 18.1267 
2 *108:25 *108:29 49.7258 
3 *108:29 *3589:A 9.24915 
*END

*D_NET *109 0.00755742
*CONN
*I *3590:A I *D sky130_fd_sc_hd__clkdlybuf4s50_1
*I *307:dout[40] O *D sram22_256x64m4w8
*CAP
1 *3590:A 0
2 *307:dout[40] 0.00122655
3 *109:29 0.00141465
4 *109:25 0.0026412
5 *109:25 *307:wmask[5] 0.00110755
6 *109:29 *231:9 0.0001763
7 *307:din[40] *109:25 0.000107791
8 *307:din[40] *109:29 0.00021887
9 *3588:A *109:25 0
10 *43:12 *109:29 0
11 *45:12 *109:29 0.000664508
*RES
1 *307:dout[40] *109:25 18.4266 
2 *109:25 *109:29 49.7258 
3 *109:29 *3590:A 9.24915 
*END

*D_NET *110 0.00955325
*CONN
*I *3591:A I *D sky130_fd_sc_hd__clkdlybuf4s50_1
*I *307:dout[41] O *D sram22_256x64m4w8
*CAP
1 *3591:A 0.00410643
2 *307:dout[41] 0.00410643
3 *3591:A *3593:A 0
4 *3591:A *111:11 0.000592563
5 *307:din[41] *3591:A 9.55712e-05
6 *46:10 *3591:A 0.000652256
*RES
1 *307:dout[41] *3591:A 38.8576 
*END

*D_NET *13 0.00717231
*CONN
*I *307:din[11] I *D sram22_256x64m4w8
*I *3484:X O *D sky130_fd_sc_hd__clkdlybuf4s50_1
*CAP
1 *307:din[11] 3.51257e-05
2 *3484:X 9.61382e-05
3 *13:10 0.00282647
4 *13:8 0.00288748
5 *307:din[11] *3558:A 6.19844e-05
6 *13:10 data_out[11] 2.99929e-05
7 *13:10 *3558:A 0.00123513
*RES
1 *3484:X *13:8 15.0271 
2 *13:8 *13:10 74.0859 
3 *13:10 *307:din[11] 5.66949 
*END

*D_NET *111 0.00681177
*CONN
*I *3592:A I *D sky130_fd_sc_hd__clkdlybuf4s50_1
*I *307:dout[42] O *D sram22_256x64m4w8
*CAP
1 *3592:A 0
2 *307:dout[42] 0.00014718
3 *111:11 0.00227144
4 *111:9 0.00241862
5 *307:din[42] *111:9 0.000104215
6 *3591:A *111:11 0.000592563
7 *46:10 *111:11 0
8 *47:10 *111:11 0.00127775
*RES
1 *307:dout[42] *111:9 8.58719 
2 *111:9 *111:11 70.7639 
3 *111:11 *3592:A 13.7491 
*END

*D_NET *112 0.00846657
*CONN
*I *3593:A I *D sky130_fd_sc_hd__clkdlybuf4s50_1
*I *307:dout[43] O *D sram22_256x64m4w8
*CAP
1 *3593:A 0.00419116
2 *307:dout[43] 0.00419116
3 *307:din[43] *3593:A 6.40358e-05
4 *3591:A *3593:A 0
5 *47:10 *3593:A 0
6 *48:10 *3593:A 2.02035e-05
*RES
1 *307:dout[43] *3593:A 40.4978 
*END

*D_NET *113 0.00695053
*CONN
*I *3594:A I *D sky130_fd_sc_hd__clkdlybuf4s50_1
*I *307:dout[44] O *D sram22_256x64m4w8
*CAP
1 *3594:A 0
2 *307:dout[44] 0.00147326
3 *113:29 0.00183545
4 *113:25 0.00330871
5 *113:25 *3595:A 0
6 *307:din[44] *113:25 6.19844e-05
7 *49:10 *113:29 0
8 *49:12 *113:25 0.000271132
9 *49:12 *113:29 0
*RES
1 *307:dout[44] *113:25 18.1937 
2 *113:25 *113:29 49.7258 
3 *113:29 *3594:A 9.24915 
*END

*D_NET *114 0.00735337
*CONN
*I *3595:A I *D sky130_fd_sc_hd__clkdlybuf4s50_1
*I *307:dout[45] O *D sram22_256x64m4w8
*CAP
1 *3595:A 0.00362265
2 *307:dout[45] 0.00362265
3 *307:din[45] *3595:A 9.13937e-05
4 *49:10 *3595:A 0
5 *49:12 *3595:A 0
6 *50:10 *3595:A 1.66771e-05
7 *113:25 *3595:A 0
*RES
1 *307:dout[45] *3595:A 48.4778 
*END

*D_NET *115 0.00795946
*CONN
*I *3596:A I *D sky130_fd_sc_hd__clkdlybuf4s50_1
*I *307:dout[46] O *D sram22_256x64m4w8
*CAP
1 *3596:A 0.00358124
2 *307:dout[46] 0.00358124
3 *3596:A *116:29 0
4 *307:din[46] *3596:A 6.19844e-05
5 *50:10 *3596:A 0
6 *51:10 *3596:A 0.000735002
*RES
1 *307:dout[46] *3596:A 40.5314 
*END

*D_NET *116 0.00756802
*CONN
*I *3597:A I *D sky130_fd_sc_hd__clkdlybuf4s50_1
*I *307:dout[47] O *D sram22_256x64m4w8
*CAP
1 *3597:A 0
2 *307:dout[47] 0.00318074
3 *116:29 0.00318074
4 *307:din[47] *116:29 0.00073188
5 *3596:A *116:29 0
6 *52:12 *116:29 0.000474663
*RES
1 *307:dout[47] *116:29 43.6727 
2 *116:29 *3597:A 9.24915 
*END

*D_NET *117 0.00819843
*CONN
*I *3598:A I *D sky130_fd_sc_hd__clkdlybuf4s50_1
*I *307:dout[48] O *D sram22_256x64m4w8
*CAP
1 *3598:A 0
2 *307:dout[48] 0.00165357
3 *117:29 0.00103293
4 *117:25 0.0026865
5 *117:25 *147:10 0.000503333
6 *117:29 *147:10 0.00225315
7 *307:din[48] *117:25 6.53856e-05
8 *53:10 *117:25 3.5534e-06
*RES
1 *307:dout[48] *117:25 18.7495 
2 *117:25 *117:29 43.0818 
3 *117:29 *3598:A 9.24915 
*END

*D_NET *118 0.00583609
*CONN
*I *3599:A I *D sky130_fd_sc_hd__clkdlybuf4s50_1
*I *307:dout[49] O *D sram22_256x64m4w8
*CAP
1 *3599:A 0
2 *307:dout[49] 0.000169972
3 *118:15 0.00269477
4 *118:13 0.00286474
5 *307:din[49] *118:13 0.000106602
6 *53:10 *118:15 0
7 *54:10 *118:15 0
*RES
1 *307:dout[49] *118:13 9.69639 
2 *118:13 *118:15 67.8571 
3 *118:15 *3599:A 13.7491 
*END

*D_NET *119 0.00771722
*CONN
*I *3600:A I *D sky130_fd_sc_hd__clkdlybuf4s50_1
*I *307:dout[4] O *D sram22_256x64m4w8
*CAP
1 *3600:A 0.00352541
2 *307:dout[4] 0.00352541
3 *3600:A *3611:A 0
4 *307:din[4] *3600:A 6.19844e-05
5 *44:10 *3600:A 0
6 *55:8 *3600:A 0.000604417
*RES
1 *307:dout[4] *3600:A 48.462 
*END

*D_NET *120 0.00637196
*CONN
*I *3601:A I *D sky130_fd_sc_hd__clkdlybuf4s50_1
*I *307:dout[50] O *D sram22_256x64m4w8
*CAP
1 *3601:A 3.87229e-05
2 *307:dout[50] 0.000210831
3 *120:15 0.00289901
4 *120:13 0.00307112
5 *120:15 *277:8 0
6 *307:din[50] *120:13 0.000152277
7 *54:10 *120:15 0
*RES
1 *307:dout[50] *120:13 11.2155 
2 *120:13 *120:15 70.7639 
3 *120:15 *3601:A 14.4725 
*END

*D_NET *14 0.00655626
*CONN
*I *307:din[12] I *D sram22_256x64m4w8
*I *3485:X O *D sky130_fd_sc_hd__clkdlybuf4s50_1
*CAP
1 *307:din[12] 7.9763e-05
2 *3485:X 0.000211575
3 *14:10 0.00303494
4 *14:8 0.00316675
5 *307:din[12] *78:25 6.32197e-05
6 *14:10 *3558:A 0
7 *14:10 *78:29 0
8 *14:10 *237:10 0
*RES
1 *3485:X *14:8 16.691 
2 *14:8 *14:10 74.0859 
3 *14:10 *307:din[12] 6.80281 
*END

*D_NET *121 0.00608513
*CONN
*I *3602:A I *D sky130_fd_sc_hd__clkdlybuf4s50_1
*I *307:dout[51] O *D sram22_256x64m4w8
*CAP
1 *3602:A 0
2 *307:dout[51] 0.000197805
3 *121:15 0.00280739
4 *121:13 0.0030052
5 *307:din[51] *121:13 7.47433e-05
6 *56:10 *121:15 0
7 *57:28 *121:15 0
*RES
1 *307:dout[51] *121:13 10.5162 
2 *121:13 *121:15 70.7639 
3 *121:15 *3602:A 13.7491 
*END

*D_NET *122 0.0115168
*CONN
*I *3603:A I *D sky130_fd_sc_hd__clkdlybuf4s50_1
*I *307:dout[52] O *D sram22_256x64m4w8
*CAP
1 *3603:A 0.001822
2 *307:dout[52] 0.001822
3 *307:din[52] *3603:A 0.00405453
4 *57:28 *3603:A 0.00381822
*RES
1 *307:dout[52] *3603:A 47.5243 
*END

*D_NET *123 0.00789781
*CONN
*I *3604:A I *D sky130_fd_sc_hd__clkdlybuf4s50_1
*I *307:dout[53] O *D sram22_256x64m4w8
*CAP
1 *3604:A 0
2 *307:dout[53] 0.00104461
3 *123:29 0.00180968
4 *123:25 0.00285429
5 *307:din[52] *123:29 0
6 *307:din[53] *123:25 0.0018382
7 *307:din[53] *123:29 0.000351031
*RES
1 *307:dout[53] *123:25 18.0261 
2 *123:25 *123:29 49.7258 
3 *123:29 *3604:A 9.24915 
*END

*D_NET *124 0.00726131
*CONN
*I *3605:A I *D sky130_fd_sc_hd__clkdlybuf4s50_1
*I *307:dout[54] O *D sram22_256x64m4w8
*CAP
1 *3605:A 0.00359206
2 *307:dout[54] 0.00359206
3 *307:din[53] *3605:A 0
4 *307:din[54] *3605:A 7.71961e-05
*RES
1 *307:dout[54] *3605:A 47.5163 
*END

*D_NET *125 0.00813431
*CONN
*I *3606:A I *D sky130_fd_sc_hd__clkdlybuf4s50_1
*I *307:dout[55] O *D sram22_256x64m4w8
*CAP
1 *3606:A 0.00300767
2 *307:dout[55] 0.00300767
3 *3606:A *307:wmask[7] 0
4 *3606:A *3607:A 0
5 *307:din[54] *3606:A 0.001027
6 *307:din[55] *3606:A 0.000754068
7 *61:12 *3606:A 0.000337897
*RES
1 *307:dout[55] *3606:A 40.5797 
*END

*D_NET *126 0.0101274
*CONN
*I *3607:A I *D sky130_fd_sc_hd__clkdlybuf4s50_1
*I *307:dout[56] O *D sram22_256x64m4w8
*CAP
1 *3607:A 0.00402793
2 *307:dout[56] 0.00402793
3 *3607:A *307:wmask[7] 0.00111627
4 *3607:A *148:8 0.000421556
5 *3607:A *211:9 0.000291676
6 *307:din[54] *3607:A 0
7 *307:din[56] *3607:A 6.11279e-05
8 *3606:A *3607:A 0
9 *62:10 *3607:A 0.000180908
*RES
1 *307:dout[56] *3607:A 43.8912 
*END

*D_NET *127 0.00826862
*CONN
*I *3608:A I *D sky130_fd_sc_hd__clkdlybuf4s50_1
*I *307:dout[57] O *D sram22_256x64m4w8
*CAP
1 *3608:A 0.00354101
2 *307:dout[57] 0.00354101
3 *3608:A *128:11 0.000502014
4 *3608:A *148:8 0
5 *307:din[57] *3608:A 8.5309e-05
6 *63:8 *3608:A 0.000599277
*RES
1 *307:dout[57] *3608:A 47.6893 
*END

*D_NET *128 0.0066568
*CONN
*I *3609:A I *D sky130_fd_sc_hd__clkdlybuf4s50_1
*I *307:dout[58] O *D sram22_256x64m4w8
*CAP
1 *3609:A 0
2 *307:dout[58] 0.000210604
3 *128:11 0.00281164
4 *128:9 0.00302224
5 *307:din[58] *128:9 0.0001103
6 *3608:A *128:11 0.000502014
7 *63:8 *128:11 0
8 *64:10 *128:11 0
*RES
1 *307:dout[58] *128:9 10.3475 
2 *128:9 *128:11 70.7639 
3 *128:11 *3609:A 13.7491 
*END

*D_NET *129 0.00651247
*CONN
*I *3610:A I *D sky130_fd_sc_hd__clkdlybuf4s50_1
*I *307:dout[59] O *D sram22_256x64m4w8
*CAP
1 *3610:A 0.000120952
2 *307:dout[59] 0.000213656
3 *129:11 0.00298124
4 *129:9 0.00307394
5 *307:din[59] *129:9 0.000122675
6 *64:10 *129:11 0
*RES
1 *307:dout[59] *129:9 10.4921 
2 *129:9 *129:11 70.7639 
3 *129:11 *3610:A 16.1364 
*END

*D_NET *130 0.00920684
*CONN
*I *3611:A I *D sky130_fd_sc_hd__clkdlybuf4s50_1
*I *307:dout[5] O *D sram22_256x64m4w8
*CAP
1 *3611:A 0.00396307
2 *307:dout[5] 0.00396307
3 *307:din[5] *3611:A 6.19844e-05
4 *3600:A *3611:A 0
5 *55:8 *3611:A 0
6 *66:10 *3611:A 0
7 *66:12 *3611:A 0.00121872
*RES
1 *307:dout[5] *3611:A 40.4696 
*END

*D_NET *15 0.00688215
*CONN
*I *307:din[13] I *D sram22_256x64m4w8
*I *3486:X O *D sky130_fd_sc_hd__clkdlybuf4s50_1
*CAP
1 *307:din[13] 7.3919e-05
2 *3486:X 0
3 *15:8 0.0032118
4 *15:6 0.00313788
5 *307:din[13] *3560:A 6.19844e-05
6 *15:8 *3560:A 0.000253962
7 *15:8 *78:29 0
8 *15:8 *237:10 0
9 *15:8 *238:10 0.000142607
*RES
1 *3486:X *15:6 13.7491 
2 *15:6 *15:8 80.3147 
3 *15:8 *307:din[13] 7.1404 
*END

*D_NET *131 0.00666073
*CONN
*I *3612:A I *D sky130_fd_sc_hd__clkdlybuf4s50_1
*I *307:dout[60] O *D sram22_256x64m4w8
*CAP
1 *3612:A 0
2 *307:dout[60] 0.000153807
3 *131:15 0.00278343
4 *131:13 0.00293724
5 *131:15 *132:29 0
6 *307:din[60] *131:13 6.02032e-05
7 *307:din[60] *131:15 0.000726054
*RES
1 *307:dout[60] *131:13 9.21413 
2 *131:13 *131:15 70.7639 
3 *131:15 *3612:A 13.7491 
*END

*D_NET *132 0.00980891
*CONN
*I *3613:A I *D sky130_fd_sc_hd__clkdlybuf4s50_1
*I *307:dout[61] O *D sram22_256x64m4w8
*CAP
1 *3613:A 0.000162939
2 *307:dout[61] 0.00253141
3 *132:29 0.00269435
4 *132:29 *217:13 0.000106165
5 *132:29 *290:10 4.34007e-05
6 *307:din[60] *132:29 0.000227108
7 *307:din[61] *132:29 6.29452e-05
8 *68:22 *132:29 0.0039806
9 *131:15 *132:29 0
*RES
1 *307:dout[61] *132:29 49.5448 
2 *132:29 *3613:A 12.7456 
*END

*D_NET *133 0.00775623
*CONN
*I *3614:A I *D sky130_fd_sc_hd__clkdlybuf4s50_1
*I *307:dout[62] O *D sram22_256x64m4w8
*CAP
1 *3614:A 0.00331348
2 *307:dout[62] 0.00331348
3 *3614:A *3615:A 0.000270379
4 *307:din[62] *3614:A 7.16866e-05
5 *69:10 *3614:A 0.000787205
*RES
1 *307:dout[62] *3614:A 48.7913 
*END

*D_NET *134 0.00735934
*CONN
*I *3615:A I *D sky130_fd_sc_hd__clkdlybuf4s50_1
*I *307:dout[63] O *D sram22_256x64m4w8
*CAP
1 *3615:A 0.00339941
2 *307:dout[63] 0.00339941
3 *307:din[63] *3615:A 6.19844e-05
4 *3614:A *3615:A 0.000270379
5 *69:10 *3615:A 0
6 *70:10 *3615:A 0.000228151
*RES
1 *307:dout[63] *3615:A 48.4201 
*END

*D_NET *135 0.00607045
*CONN
*I *3616:A I *D sky130_fd_sc_hd__clkdlybuf4s50_1
*I *307:dout[6] O *D sram22_256x64m4w8
*CAP
1 *3616:A 0
2 *307:dout[6] 0.000169206
3 *135:15 0.0028092
4 *135:13 0.00297841
5 *307:din[6] *135:13 0.000113632
6 *66:10 *135:15 0
7 *66:12 *135:15 0
8 *71:10 *135:15 0
*RES
1 *307:dout[6] *135:13 9.81696 
2 *135:13 *135:15 70.7639 
3 *135:15 *3616:A 13.7491 
*END

*D_NET *136 0.00659008
*CONN
*I *3617:A I *D sky130_fd_sc_hd__clkdlybuf4s50_1
*I *307:dout[7] O *D sram22_256x64m4w8
*CAP
1 *3617:A 0
2 *307:dout[7] 0.000129503
3 *136:15 0.00215699
4 *136:13 0.00228649
5 *307:din[7] *136:13 0.00010521
6 *72:10 *136:15 0.00191188
*RES
1 *307:dout[7] *136:13 8.56307 
2 *136:13 *136:15 70.7639 
3 *136:15 *3617:A 13.7491 
*END

*D_NET *137 0.00766809
*CONN
*I *3618:A I *D sky130_fd_sc_hd__clkdlybuf4s50_1
*I *307:dout[8] O *D sram22_256x64m4w8
*CAP
1 *3618:A 0
2 *307:dout[8] 0.000122177
3 *137:11 0.00224286
4 *137:9 0.00236504
5 *137:9 *307:wmask[1] 1.08178e-05
6 *137:11 *142:22 0.002651
7 *137:11 *227:9 0.000168928
8 *307:din[8] *137:9 0.000107274
9 *73:12 *137:11 0
*RES
1 *307:dout[8] *137:9 8.10492 
2 *137:9 *137:11 70.7639 
3 *137:11 *3618:A 13.7491 
*END

*D_NET *138 0.00876348
*CONN
*I *3619:A I *D sky130_fd_sc_hd__clkdlybuf4s50_1
*I *307:dout[9] O *D sram22_256x64m4w8
*CAP
1 *3619:A 0.002556
2 *307:dout[9] 0.002556
3 *307:din[9] *3619:A 6.82246e-05
4 *74:18 *3619:A 0.00358326
*RES
1 *307:dout[9] *3619:A 48.3814 
*END

*D_NET *298 0.000185364
*CONN
*I *3628:A I *D sky130_fd_sc_hd__dlygate4sd3_1
*I *3620:X O *D sky130_fd_sc_hd__buf_16
*CAP
1 *3628:A 9.26818e-05
2 *3620:X 9.26818e-05
3 *3628:A *305:12 0
*RES
1 *3620:X *3628:A 29.7455 
*END

*D_NET *299 0.00203438
*CONN
*I *3625:A I *D sky130_fd_sc_hd__dlygate4sd3_1
*I *3621:X O *D sky130_fd_sc_hd__dlygate4sd3_1
*CAP
1 *3625:A 0
2 *3621:X 0.00101719
3 *299:12 0.00101719
*RES
1 *3621:X *299:12 42.2611 
2 *299:12 *3625:A 9.24915 
*END

*D_NET *16 0.00806913
*CONN
*I *307:din[14] I *D sram22_256x64m4w8
*I *3487:X O *D sky130_fd_sc_hd__clkdlybuf4s50_1
*CAP
1 *307:din[14] 0.000119603
2 *3487:X 0.000259694
3 *16:10 0.00231731
4 *16:8 0.0024574
5 *307:din[14] *80:25 8.07129e-05
6 *307:din[14] *81:11 0
7 *16:10 *80:25 0.000250928
8 *16:10 *80:27 0.00258348
9 *16:10 *81:11 0
*RES
1 *3487:X *16:8 17.2456 
2 *16:8 *16:10 69.799 
3 *16:10 *307:din[14] 7.65336 
*END

*D_NET *300 0.00146762
*CONN
*I *3627:A I *D sky130_fd_sc_hd__dlygate4sd3_1
*I *3622:X O *D sky130_fd_sc_hd__dlygate4sd3_1
*CAP
1 *3627:A 0.000704152
2 *3622:X 0.000704152
3 *3627:A *305:12 5.93193e-05
*RES
1 *3622:X *3627:A 45.4208 
*END

*D_NET *301 0.00199755
*CONN
*I *307:rstb I *D sram22_256x64m4w8
*I *3623:X O *D sky130_fd_sc_hd__buf_16
*CAP
1 *307:rstb 0.000972253
2 *3623:X 0.000972253
3 *307:rstb *305:12 0
4 *307:clk *307:rstb 5.30479e-05
5 *140:10 *307:rstb 0
*RES
1 *3623:X *307:rstb 42.05 
*END

*D_NET *302 0.0027621
*CONN
*I *3621:A I *D sky130_fd_sc_hd__dlygate4sd3_1
*I *3624:X O *D sky130_fd_sc_hd__dlygate4sd3_1
*CAP
1 *3621:A 0
2 *3624:X 0.00126488
3 *302:12 0.00126488
4 *307:clk *302:12 0.000232337
5 *225:5 *302:12 0
*RES
1 *3624:X *302:12 47.2469 
2 *302:12 *3621:A 9.24915 
*END

*D_NET *303 0.00366187
*CONN
*I *3546:A I *D sky130_fd_sc_hd__buf_12
*I *3625:X O *D sky130_fd_sc_hd__dlygate4sd3_1
*CAP
1 *3546:A 0
2 *3625:X 0.00155621
3 *303:10 0.00155621
4 *307:clk *303:10 0.000549448
*RES
1 *3625:X *303:10 48.2874 
2 *303:10 *3546:A 13.7491 
*END

*D_NET *304 0.00194354
*CONN
*I *3622:A I *D sky130_fd_sc_hd__dlygate4sd3_1
*I *3626:X O *D sky130_fd_sc_hd__dlygate4sd3_1
*CAP
1 *3622:A 0.000964703
2 *3626:X 0.000964703
3 *3626:A *3622:A 1.41307e-05
*RES
1 *3626:X *3622:A 47.6392 
*END

*D_NET *305 0.00234001
*CONN
*I *3620:A I *D sky130_fd_sc_hd__buf_16
*I *3627:X O *D sky130_fd_sc_hd__dlygate4sd3_1
*CAP
1 *3620:A 0
2 *3627:X 0.00114034
3 *305:12 0.00114034
4 *307:rstb *305:12 0
5 *3627:A *305:12 5.93193e-05
6 *3628:A *305:12 0
*RES
1 *3627:X *305:12 42.8213 
2 *305:12 *3620:A 9.24915 
*END

*D_NET *306 0.000901443
*CONN
*I *3623:A I *D sky130_fd_sc_hd__buf_16
*I *3628:X O *D sky130_fd_sc_hd__dlygate4sd3_1
*CAP
1 *3623:A 0.000450722
2 *3628:X 0.000450722
*RES
1 *3628:X *3623:A 34.7664 
*END

*D_NET *17 0.00625505
*CONN
*I *307:din[15] I *D sram22_256x64m4w8
*I *3488:X O *D sky130_fd_sc_hd__clkdlybuf4s50_1
*CAP
1 *307:din[15] 3.00819e-05
2 *3488:X 9.18022e-05
3 *17:10 0.00298713
4 *17:8 0.00304885
5 *307:din[15] *81:9 7.92243e-05
6 *17:10 *81:11 0
7 *17:10 *82:19 0
8 *17:10 *228:9 0
9 *17:10 *240:10 1.79672e-05
*RES
1 *3488:X *17:8 15.0271 
2 *17:8 *17:10 74.0859 
3 *17:10 *307:din[15] 5.64538 
*END

*D_NET *18 0.00712147
*CONN
*I *307:din[16] I *D sram22_256x64m4w8
*I *3489:X O *D sky130_fd_sc_hd__clkdlybuf4s50_1
*CAP
1 *307:din[16] 5.23042e-05
2 *3489:X 0.00025456
3 *18:10 0.00259833
4 *18:8 0.00280058
5 *307:din[16] *307:wmask[2] 8.18758e-05
6 *307:din[16] *82:17 0.000163573
7 *18:10 data_out[16] 7.50722e-05
8 *18:10 *19:10 0
9 *18:10 *82:19 0
10 *18:10 *83:29 0
11 *18:10 *143:22 0.00109517
12 *18:10 *228:9 0
*RES
1 *3489:X *18:8 17.2456 
2 *18:8 *18:10 73.2554 
3 *18:10 *307:din[16] 7.42975 
*END

*D_NET *19 0.00946606
*CONN
*I *307:din[17] I *D sram22_256x64m4w8
*I *3490:X O *D sky130_fd_sc_hd__clkdlybuf4s50_1
*CAP
1 *307:din[17] 0.00100331
2 *3490:X 0.000212326
3 *19:10 0.00232844
4 *19:8 0.00153745
5 *307:din[17] *83:25 0.00177049
6 *307:din[17] *84:25 0
7 *19:10 data_out[16] 0
8 *19:10 data_out[17] 1.79672e-05
9 *19:10 *83:29 0.00259608
10 *18:10 *19:10 0
*RES
1 *3490:X *19:8 16.691 
2 *19:8 *19:10 47.7174 
3 *19:10 *307:din[17] 17.6928 
*END

*D_NET *20 0.00879135
*CONN
*I *307:din[18] I *D sram22_256x64m4w8
*I *3491:X O *D sky130_fd_sc_hd__clkdlybuf4s50_1
*CAP
1 *307:din[18] 0.00329733
2 *3491:X 0.00329733
3 *307:din[18] data_out[18] 3.00073e-05
4 *307:din[18] *21:10 0
5 *307:din[18] *83:25 0
6 *307:din[18] *84:25 0.00181565
7 *307:din[18] *84:29 0.000351031
*RES
1 *3491:X *307:din[18] 42.9087 
*END

*D_NET *2 0.00792962
*CONN
*I *307:addr[1] I *D sram22_256x64m4w8
*I *3474:X O *D sky130_fd_sc_hd__clkdlybuf4s50_1
*CAP
1 *307:addr[1] 0.0015804
2 *3474:X 0.000391826
3 *2:10 0.00349036
4 *2:8 0.00230179
5 *307:addr[1] *307:addr[3] 0
6 *307:addr[1] *3:10 0.000147091
7 *2:8 *3474:A 1.81618e-05
8 *2:10 *3:10 0
*RES
1 *3474:X *2:8 19.464 
2 *2:8 *2:10 47.7174 
3 *2:10 *307:addr[1] 21.6306 
*END

*D_NET *21 0.00703301
*CONN
*I *307:din[19] I *D sram22_256x64m4w8
*I *3492:X O *D sky130_fd_sc_hd__clkdlybuf4s50_1
*CAP
1 *307:din[19] 3.24077e-05
2 *3492:X 0.000172065
3 *21:10 0.0025658
4 *21:8 0.00270546
5 *307:din[19] *85:25 6.19844e-05
6 *21:10 *85:25 0.000282521
7 *21:10 *85:29 0.00121277
8 *21:10 *244:10 0
9 *307:din[18] *21:10 0
*RES
1 *3492:X *21:8 16.1364 
2 *21:8 *21:10 74.0859 
3 *21:10 *307:din[19] 5.62126 
*END

*D_NET *22 0.00623984
*CONN
*I *307:din[1] I *D sram22_256x64m4w8
*I *3493:X O *D sky130_fd_sc_hd__clkdlybuf4s50_1
*CAP
1 *307:din[1] 0.000122954
2 *3493:X 0
3 *22:8 0.00303103
4 *22:6 0.00290808
5 *307:din[1] *86:25 0.000108077
6 *22:8 *86:29 0
7 *22:8 *97:29 0
8 *22:8 *245:10 6.96979e-05
*RES
1 *3493:X *22:6 13.7491 
2 *22:6 *22:8 73.2554 
3 *22:8 *307:din[1] 8.58719 
*END

*D_NET *23 0.00652139
*CONN
*I *307:din[20] I *D sram22_256x64m4w8
*I *3494:X O *D sky130_fd_sc_hd__clkdlybuf4s50_1
*CAP
1 *307:din[20] 0.000110607
2 *3494:X 5.38389e-05
3 *23:10 0.00299644
4 *23:8 0.00293967
5 *307:din[20] *87:25 6.54941e-05
6 *23:10 *87:25 0.000250928
7 *23:10 *87:29 0
8 *23:10 *244:10 0
9 *23:10 *246:8 0.000104403
*RES
1 *3494:X *23:8 14.4725 
2 *23:8 *23:10 73.2554 
3 *23:10 *307:din[20] 8.56307 
*END

*D_NET *24 0.00680812
*CONN
*I *307:din[21] I *D sram22_256x64m4w8
*I *3495:X O *D sky130_fd_sc_hd__clkdlybuf4s50_1
*CAP
1 *307:din[21] 0.000101541
2 *3495:X 0
3 *24:8 0.00260111
4 *24:6 0.00249957
5 *307:din[21] *88:25 0.000114934
6 *24:8 *88:25 0.000256968
7 *24:8 *88:29 0.00121277
8 *24:8 *247:10 2.12377e-05
*RES
1 *3495:X *24:6 13.7491 
2 *24:6 *24:8 73.2554 
3 *24:8 *307:din[21] 8.15315 
*END

*D_NET *25 0.00650899
*CONN
*I *307:din[22] I *D sram22_256x64m4w8
*I *3496:X O *D sky130_fd_sc_hd__clkdlybuf4s50_1
*CAP
1 *307:din[22] 5.42756e-05
2 *3496:X 5.28321e-05
3 *25:10 0.00288467
4 *25:8 0.00288323
5 *307:din[22] *3570:A 6.19844e-05
6 *25:8 *3496:A 2.41274e-06
7 *25:10 *3570:A 0.000569586
8 *25:10 *88:29 0
9 *25:10 *247:10 0
10 *25:10 *248:10 0
*RES
1 *3496:X *25:8 14.4725 
2 *25:8 *25:10 73.6706 
3 *25:10 *307:din[22] 6.15175 
*END

*D_NET *26 0.00657474
*CONN
*I *307:din[23] I *D sram22_256x64m4w8
*I *3497:X O *D sky130_fd_sc_hd__clkdlybuf4s50_1
*CAP
1 *307:din[23] 5.58038e-05
2 *3497:X 0.000130917
3 *26:10 0.00310671
4 *26:8 0.00318182
5 *307:din[23] *3571:A 6.40358e-05
6 *26:10 *3571:A 3.54559e-05
7 *26:10 *248:10 0
*RES
1 *3497:X *26:8 15.5817 
2 *26:8 *26:10 74.0859 
3 *26:10 *307:din[23] 6.17587 
*END

*D_NET *27 0.00672484
*CONN
*I *307:din[24] I *D sram22_256x64m4w8
*I *3498:X O *D sky130_fd_sc_hd__clkdlybuf4s50_1
*CAP
1 *307:din[24] 0.00105096
2 *3498:X 0
3 *27:8 0.0026373
4 *27:6 0.00158633
5 *307:din[24] *307:wmask[3] 0.000101888
6 *307:din[24] *3573:A 0
7 *307:din[24] *91:9 0.000116033
8 *307:din[24] *91:11 0.000318908
9 *307:din[24] *144:10 2.18679e-05
10 *27:8 *144:10 0.000891551
*RES
1 *3498:X *27:6 13.7491 
2 *27:6 *27:8 49.3784 
3 *27:8 *307:din[24] 16.7489 
*END

*D_NET *28 0.00747988
*CONN
*I *307:din[25] I *D sram22_256x64m4w8
*I *3499:X O *D sky130_fd_sc_hd__clkdlybuf4s50_1
*CAP
1 *307:din[25] 7.08063e-05
2 *3499:X 9.25196e-05
3 *28:10 0.00285379
4 *28:8 0.0028755
5 *307:din[25] *3573:A 0.000104027
6 *28:10 *3573:A 0.00148323
*RES
1 *3499:X *28:8 15.0271 
2 *28:8 *28:10 70.3486 
3 *28:10 *307:din[25] 6.82692 
*END

*D_NET *29 0.00741553
*CONN
*I *307:din[26] I *D sram22_256x64m4w8
*I *3500:X O *D sky130_fd_sc_hd__clkdlybuf4s50_1
*CAP
1 *307:din[26] 0.000818324
2 *3500:X 0
3 *29:8 0.00302402
4 *29:6 0.0022057
5 *307:din[26] *307:din[27] 0
6 *307:din[26] *3574:A 0.00129544
7 *29:8 *3574:A 7.20505e-05
8 *29:8 *3575:A 0
9 *29:8 *252:8 0
*RES
1 *3500:X *29:6 13.7491 
2 *29:6 *29:8 56.0224 
3 *29:8 *307:din[26] 16.8191 
*END

*D_NET *30 0.0104569
*CONN
*I *307:din[27] I *D sram22_256x64m4w8
*I *3501:X O *D sky130_fd_sc_hd__clkdlybuf4s50_1
*CAP
1 *307:din[27] 0.00285315
2 *3501:X 0.00285315
3 *307:din[27] data_out[27] 0.000210687
4 *307:din[27] *3574:A 0
5 *307:din[27] *3575:A 0.00453993
6 *307:din[27] *180:13 0
7 *307:din[26] *307:din[27] 0
*RES
1 *3501:X *307:din[27] 49.7748 
*END

*D_NET *3 0.00636492
*CONN
*I *307:addr[2] I *D sram22_256x64m4w8
*I *3475:X O *D sky130_fd_sc_hd__clkdlybuf4s50_1
*CAP
1 *307:addr[2] 3.32488e-05
2 *3475:X 0.000129765
3 *3:10 0.00297915
4 *3:8 0.00307566
5 *3:10 *4:8 0
6 *307:addr[1] *3:10 0.000147091
7 *2:10 *3:10 0
*RES
1 *3475:X *3:8 15.5817 
2 *3:8 *3:10 74.0859 
3 *3:10 *307:addr[2] 5.40424 
*END

*D_NET *31 0.00869617
*CONN
*I *307:din[28] I *D sram22_256x64m4w8
*I *3502:X O *D sky130_fd_sc_hd__clkdlybuf4s50_1
*CAP
1 *307:din[28] 0.000115972
2 *3502:X 0
3 *31:8 0.00223218
4 *31:6 0.00211621
5 *307:din[28] *95:9 6.19844e-05
6 *31:8 *95:11 0.00416982
7 *31:8 *254:8 0
*RES
1 *3502:X *31:6 13.7491 
2 *31:6 *31:8 76.9926 
3 *31:8 *307:din[28] 7.50209 
*END

*D_NET *32 0.00689861
*CONN
*I *307:din[29] I *D sram22_256x64m4w8
*I *3503:X O *D sky130_fd_sc_hd__clkdlybuf4s50_1
*CAP
1 *307:din[29] 5.90018e-05
2 *3503:X 9.18022e-05
3 *32:10 0.00299097
4 *32:8 0.00302377
5 *307:din[29] *3577:A 6.19844e-05
6 *32:10 *3577:A 0.000671089
7 *32:10 *254:8 0
8 *32:10 *255:8 0
*RES
1 *3503:X *32:8 15.0271 
2 *32:8 *32:10 73.6706 
3 *32:10 *307:din[29] 6.24821 
*END

*D_NET *33 0.00815663
*CONN
*I *307:din[2] I *D sram22_256x64m4w8
*I *3504:X O *D sky130_fd_sc_hd__clkdlybuf4s50_1
*CAP
1 *307:din[2] 0.000132702
2 *3504:X 0.000136414
3 *33:10 0.00241124
4 *33:8 0.00241495
5 *307:din[2] *97:25 9.88922e-05
6 *33:10 data_out[2] 0.000463398
7 *33:10 *97:25 0.000245885
8 *33:10 *97:29 0.00225315
9 *33:10 *108:29 0
*RES
1 *3504:X *33:8 15.5817 
2 *33:8 *33:10 72.6325 
3 *33:10 *307:din[2] 8.43125 
*END

*D_NET *34 0.006867
*CONN
*I *307:din[30] I *D sram22_256x64m4w8
*I *3505:X O *D sky130_fd_sc_hd__clkdlybuf4s50_1
*CAP
1 *307:din[30] 5.15576e-05
2 *3505:X 9.18022e-05
3 *34:10 0.00287336
4 *34:8 0.00291361
5 *307:din[30] *98:31 6.19844e-05
6 *34:10 *98:31 0.000874687
7 *34:10 *255:8 0
8 *34:10 *257:10 0
*RES
1 *3505:X *34:8 15.0271 
2 *34:8 *34:10 73.6706 
3 *34:10 *307:din[30] 6.10353 
*END

*D_NET *35 0.00671705
*CONN
*I *307:din[31] I *D sram22_256x64m4w8
*I *3506:X O *D sky130_fd_sc_hd__clkdlybuf4s50_1
*CAP
1 *307:din[31] 3.51257e-05
2 *3506:X 0.000592
3 *35:12 0.00241658
4 *35:10 0.00297346
5 *307:din[31] *3580:A 6.19844e-05
6 *35:10 *3580:A 0
7 *35:10 *100:29 0
8 *35:10 *230:13 0
9 *35:10 *257:10 0
10 *35:10 *258:10 3.34802e-05
11 *35:12 *3580:A 0.000604417
*RES
1 *3506:X *35:10 28.6127 
2 *35:10 *35:12 60.1261 
3 *35:12 *307:din[31] 5.66949 
*END

*D_NET *36 0.0069177
*CONN
*I *307:din[32] I *D sram22_256x64m4w8
*I *3507:X O *D sky130_fd_sc_hd__clkdlybuf4s50_1
*CAP
1 *307:din[32] 8.35867e-05
2 *3507:X 5.41356e-05
3 *36:10 0.00304909
4 *36:8 0.00301964
5 *307:din[32] *307:wmask[4] 0.000314177
6 *307:din[32] *100:25 6.40358e-05
7 *36:10 *307:wmask[4] 4.69495e-06
8 *36:10 *37:10 0
9 *36:10 *100:25 0.000253259
10 *36:10 *100:29 0
11 *36:10 *101:15 0
12 *36:10 *145:10 0
13 *36:10 *230:13 0
14 *36:10 *259:10 7.50722e-05
*RES
1 *3507:X *36:8 14.4725 
2 *36:8 *36:10 73.6706 
3 *36:10 *307:din[32] 8.03258 
*END

*D_NET *37 0.0069721
*CONN
*I *307:din[33] I *D sram22_256x64m4w8
*I *3508:X O *D sky130_fd_sc_hd__clkdlybuf4s50_1
*CAP
1 *307:din[33] 4.62231e-05
2 *3508:X 0.000128759
3 *37:10 0.00234411
4 *37:8 0.00242665
5 *307:din[33] *101:13 0.000112061
6 *37:8 *3508:A 2.41274e-06
7 *37:10 *101:15 0.00191188
8 *37:10 *102:11 0
9 *37:10 *259:10 0
10 *37:10 *260:10 0
11 *36:10 *37:10 0
*RES
1 *3508:X *37:8 15.5817 
2 *37:8 *37:10 73.6706 
3 *37:10 *307:din[33] 6.22409 
*END

*D_NET *38 0.00627983
*CONN
*I *307:din[34] I *D sram22_256x64m4w8
*I *3509:X O *D sky130_fd_sc_hd__clkdlybuf4s50_1
*CAP
1 *307:din[34] 4.06908e-05
2 *3509:X 0
3 *38:8 0.00244691
4 *38:6 0.00240622
5 *307:din[34] *102:9 0.000108271
6 *38:8 *3584:A 0
7 *38:8 *102:11 0.00127775
8 *38:8 *260:10 0
9 *38:8 *261:12 0
*RES
1 *3509:X *38:6 13.7491 
2 *38:6 *38:8 73.6706 
3 *38:8 *307:din[34] 6.07941 
*END

*D_NET *39 0.00794874
*CONN
*I *307:din[35] I *D sram22_256x64m4w8
*I *3510:X O *D sky130_fd_sc_hd__clkdlybuf4s50_1
*CAP
1 *307:din[35] 0.00298107
2 *3510:X 0.00298107
3 *307:din[35] *307:din[36] 3.52316e-05
4 *307:din[35] *3584:A 0.00100028
5 *307:din[35] *3585:A 0.00094052
6 *307:din[35] *262:8 1.05746e-05
*RES
1 *3510:X *307:din[35] 40.6444 
*END

*D_NET *40 0.0101472
*CONN
*I *307:din[36] I *D sram22_256x64m4w8
*I *3511:X O *D sky130_fd_sc_hd__clkdlybuf4s50_1
*CAP
1 *307:din[36] 0.00307167
2 *3511:X 0.00307167
3 *307:din[36] data_out[36] 0
4 *307:din[36] *3585:A 0.00396868
5 *307:din[36] *41:10 0
6 *307:din[35] *307:din[36] 3.52316e-05
*RES
1 *3511:X *307:din[36] 40.6898 
*END

*D_NET *4 0.00619042
*CONN
*I *307:addr[3] I *D sram22_256x64m4w8
*I *3476:X O *D sky130_fd_sc_hd__clkdlybuf4s50_1
*CAP
1 *307:addr[3] 0.00113039
2 *3476:X 0
3 *4:8 0.00309521
4 *4:6 0.00196482
5 *307:addr[1] *307:addr[3] 0
6 *3:10 *4:8 0
*RES
1 *3476:X *4:6 13.7491 
2 *4:6 *4:8 49.3784 
3 *4:8 *307:addr[3] 16.8186 
*END

*D_NET *41 0.00667949
*CONN
*I *307:din[37] I *D sram22_256x64m4w8
*I *3512:X O *D sky130_fd_sc_hd__clkdlybuf4s50_1
*CAP
1 *307:din[37] 5.78698e-05
2 *3512:X 0.000134101
3 *41:10 0.00303186
4 *41:8 0.0031081
5 *307:din[37] *105:25 6.19844e-05
6 *41:10 *3587:A 0
7 *41:10 *105:25 0.000267605
8 *41:10 *105:29 0
9 *41:10 *264:10 1.79672e-05
10 *307:din[36] *41:10 0
*RES
1 *3512:X *41:8 15.5817 
2 *41:8 *41:10 73.6706 
3 *41:10 *307:din[37] 6.19998 
*END

*D_NET *42 0.00698295
*CONN
*I *307:din[38] I *D sram22_256x64m4w8
*I *3513:X O *D sky130_fd_sc_hd__clkdlybuf4s50_1
*CAP
1 *307:din[38] 3.37667e-05
2 *3513:X 0.000172065
3 *42:10 0.00292214
4 *42:8 0.00306043
5 *307:din[38] *3587:A 6.19844e-05
6 *42:10 *3587:A 0.000732569
7 *42:10 *264:10 0
8 *42:10 *265:8 0
*RES
1 *3513:X *42:8 16.1364 
2 *42:8 *42:10 74.0859 
3 *42:10 *307:din[38] 5.64538 
*END

*D_NET *43 0.00741574
*CONN
*I *307:din[39] I *D sram22_256x64m4w8
*I *3514:X O *D sky130_fd_sc_hd__clkdlybuf4s50_1
*CAP
1 *307:din[39] 3.78438e-05
2 *3514:X 0.000643056
3 *43:14 0.00240951
4 *43:12 0.00301472
5 *307:din[39] *3588:A 6.19844e-05
6 *43:12 *3588:A 7.20505e-05
7 *43:12 *109:29 0
8 *43:12 *231:9 0
9 *43:12 *265:8 0
10 *43:12 *266:10 0
11 *43:14 *3588:A 0.00117658
*RES
1 *3514:X *43:12 29.3361 
2 *43:12 *43:14 60.1261 
3 *43:14 *307:din[39] 5.71772 
*END

*D_NET *44 0.00657617
*CONN
*I *307:din[3] I *D sram22_256x64m4w8
*I *3515:X O *D sky130_fd_sc_hd__clkdlybuf4s50_1
*CAP
1 *307:din[3] 5.22402e-05
2 *3515:X 0.000173322
3 *44:10 0.00267118
4 *44:8 0.00279226
5 *307:din[3] *108:25 6.32197e-05
6 *44:10 *3600:A 0
7 *44:10 *108:25 1.55681e-05
8 *44:10 *108:29 0.000808382
9 *44:10 *267:10 0
*RES
1 *3515:X *44:8 16.1364 
2 *44:8 *44:10 74.0859 
3 *44:10 *307:din[3] 6.0553 
*END

*D_NET *45 0.00795069
*CONN
*I *307:din[40] I *D sram22_256x64m4w8
*I *3516:X O *D sky130_fd_sc_hd__clkdlybuf4s50_1
*CAP
1 *307:din[40] 0.00120769
2 *3516:X 9.18022e-05
3 *45:12 0.00208449
4 *45:8 0.000968595
5 *307:din[40] *307:wmask[5] 0.000248048
6 *307:din[40] *109:25 0.000107791
7 *307:din[40] *109:29 0.00021887
8 *307:din[40] *146:8 0.000438035
9 *45:12 *109:29 0.000664508
10 *45:12 *146:8 0.00192086
11 *45:12 *231:9 0
12 *45:12 *268:10 0
*RES
1 *3516:X *45:8 15.0271 
2 *45:8 *45:12 40.1451 
3 *45:12 *307:din[40] 40.7016 
*END

*D_NET *46 0.00701709
*CONN
*I *307:din[41] I *D sram22_256x64m4w8
*I *3517:X O *D sky130_fd_sc_hd__clkdlybuf4s50_1
*CAP
1 *307:din[41] 0.000100838
2 *3517:X 9.18022e-05
3 *46:10 0.00303384
4 *46:8 0.00302481
5 *307:din[41] *3591:A 9.55712e-05
6 *46:10 *3591:A 0.000652256
7 *46:10 *111:11 0
8 *46:10 *269:10 1.79672e-05
*RES
1 *3517:X *46:8 15.0271 
2 *46:8 *46:10 73.6706 
3 *46:10 *307:din[41] 7.28507 
*END

*D_NET *47 0.00662011
*CONN
*I *307:din[42] I *D sram22_256x64m4w8
*I *3518:X O *D sky130_fd_sc_hd__clkdlybuf4s50_1
*CAP
1 *307:din[42] 3.88398e-05
2 *3518:X 0.000172065
3 *47:10 0.00244701
4 *47:8 0.00258023
5 *307:din[42] *111:9 0.000104215
6 *47:10 *3593:A 0
7 *47:10 *111:11 0.00127775
8 *47:10 *269:10 0
9 *47:10 *270:10 0
*RES
1 *3518:X *47:8 16.1364 
2 *47:8 *47:10 73.6706 
3 *47:10 *307:din[42] 6.03119 
*END

*D_NET *48 0.00639404
*CONN
*I *307:din[43] I *D sram22_256x64m4w8
*I *3519:X O *D sky130_fd_sc_hd__clkdlybuf4s50_1
*CAP
1 *307:din[43] 3.86698e-05
2 *3519:X 5.48377e-05
3 *48:10 0.00310006
4 *48:8 0.00311623
5 *307:din[43] *3593:A 6.40358e-05
6 *48:10 *3593:A 2.02035e-05
7 *48:10 *270:10 0
*RES
1 *3519:X *48:8 14.4725 
2 *48:8 *48:10 74.0859 
3 *48:10 *307:din[43] 5.74183 
*END

*D_NET *49 0.0064453
*CONN
*I *307:din[44] I *D sram22_256x64m4w8
*I *3520:X O *D sky130_fd_sc_hd__clkdlybuf4s50_1
*CAP
1 *307:din[44] 4.56787e-05
2 *3520:X 0.000593781
3 *49:12 0.00244557
4 *49:10 0.00299367
5 *307:din[44] *113:25 6.19844e-05
6 *49:10 *3595:A 0
7 *49:10 *113:29 0
8 *49:10 *272:10 3.34802e-05
9 *49:12 *3595:A 0
10 *49:12 *113:25 0.000271132
11 *49:12 *113:29 0
*RES
1 *3520:X *49:10 28.6127 
2 *49:10 *49:12 60.1261 
3 *49:12 *307:din[44] 5.88651 
*END

*D_NET *50 0.00670679
*CONN
*I *307:din[45] I *D sram22_256x64m4w8
*I *3521:X O *D sky130_fd_sc_hd__clkdlybuf4s50_1
*CAP
1 *307:din[45] 0.000101721
2 *3521:X 5.46428e-05
3 *50:10 0.00310808
4 *50:8 0.003061
5 *307:din[45] *3595:A 9.13937e-05
6 *50:10 data_out[45] 0.000273277
7 *50:10 *3595:A 1.66771e-05
8 *50:10 *3596:A 0
9 *50:10 *200:9 0
*RES
1 *3521:X *50:8 14.4725 
2 *50:8 *50:10 76.9926 
3 *50:10 *307:din[45] 7.26096 
*END

*D_NET *5 0.0061241
*CONN
*I *307:addr[4] I *D sram22_256x64m4w8
*I *3477:X O *D sky130_fd_sc_hd__clkdlybuf4s50_1
*CAP
1 *307:addr[4] 0.00109723
2 *3477:X 0
3 *5:8 0.00306205
4 *5:6 0.00196482
*RES
1 *3477:X *5:6 13.7491 
2 *5:6 *5:8 49.3784 
3 *5:8 *307:addr[4] 16.7663 
*END

*D_NET *51 0.00696762
*CONN
*I *307:din[46] I *D sram22_256x64m4w8
*I *3522:X O *D sky130_fd_sc_hd__clkdlybuf4s50_1
*CAP
1 *307:din[46] 3.24077e-05
2 *3522:X 0.000129765
3 *51:10 0.00295555
4 *51:8 0.00305291
5 *307:din[46] *3596:A 6.19844e-05
6 *51:10 *3596:A 0.000735002
7 *51:10 *274:10 0
*RES
1 *3522:X *51:8 15.5817 
2 *51:8 *51:10 74.0859 
3 *51:10 *307:din[46] 5.62126 
*END

*D_NET *52 0.00715706
*CONN
*I *307:din[47] I *D sram22_256x64m4w8
*I *3523:X O *D sky130_fd_sc_hd__clkdlybuf4s50_1
*CAP
1 *307:din[47] 0.00141632
2 *3523:X 9.18022e-05
3 *52:12 0.00288346
4 *52:8 0.00155894
5 *307:din[47] *116:29 0.00073188
6 *52:12 *116:29 0.000474663
7 *52:12 *274:10 0
8 *52:12 *275:8 0
*RES
1 *3523:X *52:8 15.0271 
2 *52:8 *52:12 40.1451 
3 *52:12 *307:din[47] 40.6105 
*END

*D_NET *53 0.00821511
*CONN
*I *307:din[48] I *D sram22_256x64m4w8
*I *3524:X O *D sky130_fd_sc_hd__clkdlybuf4s50_1
*CAP
1 *307:din[48] 5.48544e-05
2 *3524:X 5.37666e-05
3 *53:10 0.00192388
4 *53:8 0.0019228
5 *307:din[48] *307:wmask[6] 0.000101974
6 *307:din[48] *117:25 6.53856e-05
7 *53:10 *307:wmask[6] 5.03545e-06
8 *53:10 *117:25 3.5534e-06
9 *53:10 *118:15 0
10 *53:10 *147:10 0.00408386
11 *53:10 *276:8 0
*RES
1 *3524:X *53:8 14.4725 
2 *53:8 *53:10 70.141 
3 *53:10 *307:din[48] 6.65642 
*END

*D_NET *54 0.00636917
*CONN
*I *307:din[49] I *D sram22_256x64m4w8
*I *3525:X O *D sky130_fd_sc_hd__clkdlybuf4s50_1
*CAP
1 *307:din[49] 4.24917e-05
2 *3525:X 0.000134101
3 *54:10 0.00294498
4 *54:8 0.00303659
5 *307:din[49] *118:13 0.000106602
6 *54:10 *118:15 0
7 *54:10 *120:15 0
8 *54:10 *276:8 0
9 *54:10 *277:8 0.000104403
*RES
1 *3525:X *54:8 15.5817 
2 *54:8 *54:10 73.6706 
3 *54:10 *307:din[49] 6.12764 
*END

*D_NET *55 0.00722159
*CONN
*I *307:din[4] I *D sram22_256x64m4w8
*I *3526:X O *D sky130_fd_sc_hd__clkdlybuf4s50_1
*CAP
1 *307:din[4] 3.37667e-05
2 *3526:X 0
3 *55:8 0.00317051
4 *55:6 0.00313675
5 *307:din[4] *3600:A 6.19844e-05
6 *55:8 *3600:A 0.000604417
7 *55:8 *3611:A 0
8 *55:8 *267:10 0
9 *55:8 *278:10 0.00021416
*RES
1 *3526:X *55:6 13.7491 
2 *55:6 *55:8 80.7299 
3 *55:8 *307:din[4] 5.64538 
*END

*D_NET *56 0.00668734
*CONN
*I *307:din[50] I *D sram22_256x64m4w8
*I *3527:X O *D sky130_fd_sc_hd__clkdlybuf4s50_1
*CAP
1 *307:din[50] 5.03801e-05
2 *3527:X 0.000211319
3 *56:10 0.00304001
4 *56:8 0.00320095
5 *307:din[50] *120:13 0.000152277
6 *56:8 *3527:A 2.41274e-06
7 *56:10 *121:15 0
8 *56:10 *279:8 2.99929e-05
*RES
1 *3527:X *56:8 16.691 
2 *56:8 *56:10 73.6706 
3 *56:10 *307:din[50] 6.53757 
*END

*D_NET *57 0.00970803
*CONN
*I *307:din[51] I *D sram22_256x64m4w8
*I *3528:X O *D sky130_fd_sc_hd__clkdlybuf4s50_1
*CAP
1 *307:din[51] 3.43134e-05
2 *3528:X 0.00283388
3 *57:28 0.00286819
4 *307:din[51] *121:13 7.47433e-05
5 *57:28 *3603:A 0.00381822
6 *57:28 *121:15 0
7 *57:28 *280:10 7.86847e-05
*RES
1 *3528:X *57:28 49.9253 
2 *57:28 *307:din[51] 1.29006 
*END

*D_NET *58 0.011442
*CONN
*I *307:din[52] I *D sram22_256x64m4w8
*I *3529:X O *D sky130_fd_sc_hd__clkdlybuf4s50_1
*CAP
1 *307:din[52] 0.00365438
2 *3529:X 0.00365438
3 *307:din[52] *3603:A 0.00405453
4 *307:din[52] *123:29 0
5 *307:din[52] *281:10 7.86847e-05
*RES
1 *3529:X *307:din[52] 43.7954 
*END

*D_NET *59 0.00890793
*CONN
*I *307:din[53] I *D sram22_256x64m4w8
*I *3530:X O *D sky130_fd_sc_hd__clkdlybuf4s50_1
*CAP
1 *307:din[53] 0.00335935
2 *3530:X 0.00335935
3 *307:din[53] data_out[53] 0
4 *307:din[53] *3605:A 0
5 *307:din[53] *123:25 0.0018382
6 *307:din[53] *123:29 0.000351031
7 *307:din[53] *283:10 0
*RES
1 *3530:X *307:din[53] 43.156 
*END

*D_NET *60 0.00905426
*CONN
*I *307:din[54] I *D sram22_256x64m4w8
*I *3531:X O *D sky130_fd_sc_hd__clkdlybuf4s50_1
*CAP
1 *307:din[54] 0.00397503
2 *3531:X 0.00397503
3 *307:din[54] *3605:A 7.71961e-05
4 *307:din[54] *3606:A 0.001027
5 *307:din[54] *3607:A 0
6 *307:din[54] *61:12 0
7 *307:din[54] *283:10 0
*RES
1 *3531:X *307:din[54] 44.0237 
*END

*D_NET *6 0.00644061
*CONN
*I *307:addr[5] I *D sram22_256x64m4w8
*I *3478:X O *D sky130_fd_sc_hd__clkdlybuf4s50_1
*CAP
1 *307:addr[5] 3.32488e-05
2 *3478:X 0.000243655
3 *6:10 0.00297665
4 *6:8 0.00318705
*RES
1 *3478:X *6:8 17.2456 
2 *6:8 *6:10 74.0859 
3 *6:10 *307:addr[5] 5.40424 
*END

*D_NET *61 0.00740685
*CONN
*I *307:din[55] I *D sram22_256x64m4w8
*I *3532:X O *D sky130_fd_sc_hd__clkdlybuf4s50_1
*CAP
1 *307:din[55] 0.00142024
2 *3532:X 0.000134101
3 *61:12 0.00301436
4 *61:8 0.00172822
5 *307:din[55] *3606:A 0.000754068
6 *61:12 *3606:A 0.000337897
7 *61:12 *233:9 0
8 *61:12 *284:10 1.79672e-05
9 *307:din[54] *61:12 0
*RES
1 *3532:X *61:8 15.5817 
2 *61:8 *61:12 40.1451 
3 *61:12 *307:din[55] 40.6587 
*END

*D_NET *62 0.00714892
*CONN
*I *307:din[56] I *D sram22_256x64m4w8
*I *3533:X O *D sky130_fd_sc_hd__clkdlybuf4s50_1
*CAP
1 *307:din[56] 4.82041e-05
2 *3533:X 0.000130633
3 *62:10 0.00252986
4 *62:8 0.00261229
5 *307:din[56] *307:wmask[7] 8.19569e-05
6 *307:din[56] *3607:A 6.11279e-05
7 *62:10 *307:wmask[7] 0.000174416
8 *62:10 *3607:A 0.000180908
9 *62:10 *148:8 0.00132952
10 *62:10 *233:9 0
*RES
1 *3533:X *62:8 15.5817 
2 *62:8 *62:10 73.6706 
3 *62:10 *307:din[56] 6.22409 
*END

*D_NET *63 0.00707843
*CONN
*I *307:din[57] I *D sram22_256x64m4w8
*I *3534:X O *D sky130_fd_sc_hd__clkdlybuf4s50_1
*CAP
1 *307:din[57] 0.000119854
2 *3534:X 0
3 *63:8 0.00315521
4 *63:6 0.00303535
5 *307:din[57] *3608:A 8.5309e-05
6 *63:8 *3608:A 0.000599277
7 *63:8 *64:10 0
8 *63:8 *128:11 0
9 *63:8 *286:10 8.34286e-05
*RES
1 *3534:X *63:6 13.7491 
2 *63:6 *63:8 76.9926 
3 *63:8 *307:din[57] 7.74323 
*END

*D_NET *64 0.00639976
*CONN
*I *307:din[58] I *D sram22_256x64m4w8
*I *3535:X O *D sky130_fd_sc_hd__clkdlybuf4s50_1
*CAP
1 *307:din[58] 4.16164e-05
2 *3535:X 0.000136414
3 *64:10 0.00297078
4 *64:8 0.00306558
5 *307:din[58] *128:9 0.0001103
6 *64:10 data_out[58] 7.50722e-05
7 *64:10 *128:11 0
8 *64:10 *129:11 0
9 *64:10 *286:10 0
10 *63:8 *64:10 0
*RES
1 *3535:X *64:8 15.5817 
2 *64:8 *64:10 73.6706 
3 *64:10 *307:din[58] 6.10353 
*END

*D_NET *65 0.00655225
*CONN
*I *307:din[59] I *D sram22_256x64m4w8
*I *3536:X O *D sky130_fd_sc_hd__clkdlybuf4s50_1
*CAP
1 *307:din[59] 4.66316e-05
2 *3536:X 0.000166722
3 *65:10 0.00304686
4 *65:8 0.00316695
5 *307:din[59] *129:9 0.000122675
6 *65:8 *3536:A 2.41274e-06
7 *65:10 *288:10 0
*RES
1 *3536:X *65:8 16.1364 
2 *65:8 *65:10 73.6706 
3 *65:10 *307:din[59] 6.24821 
*END

*D_NET *66 0.00739617
*CONN
*I *307:din[5] I *D sram22_256x64m4w8
*I *3537:X O *D sky130_fd_sc_hd__clkdlybuf4s50_1
*CAP
1 *307:din[5] 4.19209e-05
2 *3537:X 0.000592887
3 *66:12 0.0024255
4 *66:10 0.00297647
5 *307:din[5] *3611:A 6.19844e-05
6 *66:10 data_out[5] 7.86847e-05
7 *66:10 *3611:A 0
8 *66:10 *135:15 0
9 *66:12 *3611:A 0.00121872
10 *66:12 *135:15 0
*RES
1 *3537:X *66:10 28.6127 
2 *66:10 *66:12 60.1261 
3 *66:12 *307:din[5] 5.79006 
*END

*D_NET *67 0.00851906
*CONN
*I *307:din[60] I *D sram22_256x64m4w8
*I *3538:X O *D sky130_fd_sc_hd__clkdlybuf4s50_1
*CAP
1 *307:din[60] 0.00375285
2 *3538:X 0.00375285
3 *307:din[60] *131:13 6.02032e-05
4 *307:din[60] *131:15 0.000726054
5 *307:din[60] *132:29 0.000227108
6 *307:din[60] *288:10 0
7 *307:din[60] *290:10 0
*RES
1 *3538:X *307:din[60] 45.808 
*END

*D_NET *68 0.0106464
*CONN
*I *307:din[61] I *D sram22_256x64m4w8
*I *3539:X O *D sky130_fd_sc_hd__clkdlybuf4s50_1
*CAP
1 *307:din[61] 8.82689e-05
2 *3539:X 0.00321314
3 *68:22 0.00330141
4 *307:din[61] *132:29 6.29452e-05
5 *68:22 *132:29 0.0039806
*RES
1 *3539:X *68:22 48.2292 
2 *68:22 *307:din[61] 9.87504 
*END

*D_NET *69 0.00684125
*CONN
*I *307:din[62] I *D sram22_256x64m4w8
*I *3540:X O *D sky130_fd_sc_hd__clkdlybuf4s50_1
*CAP
1 *307:din[62] 6.45442e-05
2 *3540:X 5.81894e-05
3 *69:10 0.00289545
4 *69:8 0.0028891
5 *307:din[62] *3614:A 7.16866e-05
6 *69:10 data_out[62] 7.50722e-05
7 *69:10 *3614:A 0.000787205
8 *69:10 *3615:A 0
*RES
1 *3540:X *69:8 14.4725 
2 *69:8 *69:10 73.6706 
3 *69:10 *307:din[62] 6.46523 
*END

*D_NET *70 0.00665284
*CONN
*I *307:din[63] I *D sram22_256x64m4w8
*I *3541:X O *D sky130_fd_sc_hd__clkdlybuf4s50_1
*CAP
1 *307:din[63] 4.47951e-05
2 *3541:X 0.000134574
3 *70:10 0.00304678
4 *70:8 0.00313656
5 *307:din[63] *3615:A 6.19844e-05
6 *70:10 *3615:A 0.000228151
7 *70:10 *293:10 0
*RES
1 *3541:X *70:8 15.5817 
2 *70:8 *70:10 77.4079 
3 *70:10 *307:din[63] 5.8624 
*END

*D_NET *7 0.00640713
*CONN
*I *307:addr[6] I *D sram22_256x64m4w8
*I *3479:X O *D sky130_fd_sc_hd__clkdlybuf4s50_1
*CAP
1 *307:addr[6] 0.00114143
2 *3479:X 9.25196e-05
3 *7:10 0.00311105
4 *7:8 0.00206214
*RES
1 *3479:X *7:8 15.0271 
2 *7:8 *7:10 49.3784 
3 *7:10 *307:addr[6] 16.5813 
*END

*D_NET *71 0.00621542
*CONN
*I *307:din[6] I *D sram22_256x64m4w8
*I *3542:X O *D sky130_fd_sc_hd__clkdlybuf4s50_1
*CAP
1 *307:din[6] 4.68712e-05
2 *3542:X 5.28321e-05
3 *71:10 0.00298787
4 *71:8 0.00299383
5 *307:din[6] *135:13 0.000113632
6 *71:8 *3542:A 2.41274e-06
7 *71:10 *135:15 0
8 *71:10 *294:10 1.79672e-05
*RES
1 *3542:X *71:8 14.4725 
2 *71:8 *71:10 73.6706 
3 *71:10 *307:din[6] 6.24821 
*END

*D_NET *72 0.00695206
*CONN
*I *307:din[7] I *D sram22_256x64m4w8
*I *3543:X O *D sky130_fd_sc_hd__clkdlybuf4s50_1
*CAP
1 *307:din[7] 4.15951e-05
2 *3543:X 0.000129765
3 *72:10 0.00233772
4 *72:8 0.00242589
5 *307:din[7] *136:13 0.00010521
6 *72:10 *73:12 0
7 *72:10 *136:15 0.00191188
8 *72:10 *294:10 0
*RES
1 *3543:X *72:8 15.5817 
2 *72:8 *72:10 73.6706 
3 *72:10 *307:din[7] 6.10353 
*END

*D_NET *73 0.009575
*CONN
*I *307:din[8] I *D sram22_256x64m4w8
*I *3544:X O *D sky130_fd_sc_hd__clkdlybuf4s50_1
*CAP
1 *307:din[8] 0.00141278
2 *3544:X 0.000570911
3 *73:12 0.00323147
4 *73:8 0.00238959
5 *307:din[8] *307:wmask[1] 0.000111957
6 *307:din[8] *74:18 0
7 *307:din[8] *137:9 0.000107274
8 *307:din[8] *142:22 0.00167594
9 *73:12 *137:11 0
10 *73:12 *227:9 0
11 *73:12 *295:10 7.50722e-05
12 *72:10 *73:12 0
*RES
1 *3544:X *73:8 21.6824 
2 *73:8 *73:12 49.4251 
3 *73:12 *307:din[8] 15.7968 
*END

*D_NET *74 0.00935462
*CONN
*I *307:din[9] I *D sram22_256x64m4w8
*I *3545:X O *D sky130_fd_sc_hd__clkdlybuf4s50_1
*CAP
1 *307:din[9] 0.000118397
2 *3545:X 0.00269564
3 *74:18 0.00281403
4 *307:din[9] *3619:A 6.82246e-05
5 *74:18 data_out[9] 7.50722e-05
6 *74:18 *3619:A 0.00358326
7 *74:18 *296:10 0
8 *307:din[8] *74:18 0
*RES
1 *3545:X *74:18 49.7478 
2 *74:18 *307:din[9] 10.0263 
*END

*D_NET *139 0.00115871
*CONN
*I *3626:A I *D sky130_fd_sc_hd__dlygate4sd3_1
*I *3546:X O *D sky130_fd_sc_hd__buf_12
*CAP
1 *3626:A 0.000572288
2 *3546:X 0.000572288
3 *3626:A *3622:A 1.41307e-05
*RES
1 *3546:X *3626:A 41.2655 
*END

*D_NET *140 0.00587557
*CONN
*I *307:we I *D sram22_256x64m4w8
*I *3547:X O *D sky130_fd_sc_hd__clkdlybuf4s50_1
*CAP
1 *307:we 3.32488e-05
2 *3547:X 9.16189e-05
3 *140:10 0.00284616
4 *140:8 0.00290453
5 *140:10 *307:rstb 0
*RES
1 *3547:X *140:8 15.0271 
2 *140:8 *140:10 70.7639 
3 *140:10 *307:we 5.40424 
*END

*D_NET *141 0.0105218
*CONN
*I *307:wmask[0] I *D sram22_256x64m4w8
*I *3548:X O *D sky130_fd_sc_hd__clkdlybuf4s50_1
*CAP
1 *307:wmask[0] 0.00296656
2 *3548:X 0.00296656
3 *307:wmask[0] *160:13 0
4 *307:wmask[0] *234:10 0
5 *307:din[0] *307:wmask[0] 0.00433686
6 *3556:A *307:wmask[0] 0.000128478
7 *86:25 *307:wmask[0] 0.00012334
*RES
1 *3548:X *307:wmask[0] 43.8392 
*END

*D_NET *142 0.00961059
*CONN
*I *307:wmask[1] I *D sram22_256x64m4w8
*I *3549:X O *D sky130_fd_sc_hd__clkdlybuf4s50_1
*CAP
1 *307:wmask[1] 8.02864e-05
2 *3549:X 0.000206618
3 *142:22 0.00237382
4 *142:8 0.00250015
5 *307:din[8] *307:wmask[1] 0.000111957
6 *307:din[8] *142:22 0.00167594
7 *137:9 *307:wmask[1] 1.08178e-05
8 *137:11 *142:22 0.002651
*RES
1 *3549:X *142:8 16.691 
2 *142:8 *142:22 48.9655 
3 *142:22 *307:wmask[1] 9.96476 
*END

*D_NET *143 0.00704748
*CONN
*I *307:wmask[2] I *D sram22_256x64m4w8
*I *3550:X O *D sky130_fd_sc_hd__clkdlybuf4s50_1
*CAP
1 *307:wmask[2] 0.000103551
2 *3550:X 0.000213206
3 *143:22 0.00271749
4 *143:8 0.00282714
5 *307:din[16] *307:wmask[2] 8.18758e-05
6 *18:10 *143:22 0.00109517
7 *82:17 *307:wmask[2] 9.0458e-06
8 *82:19 *143:22 0
*RES
1 *3550:X *143:8 16.691 
2 *143:8 *143:22 48.9655 
3 *143:22 *307:wmask[2] 10.013 
*END

*D_NET *144 0.00903881
*CONN
*I *307:wmask[3] I *D sram22_256x64m4w8
*I *3551:X O *D sky130_fd_sc_hd__clkdlybuf4s50_1
*CAP
1 *307:wmask[3] 4.45454e-05
2 *3551:X 0.000174377
3 *144:10 0.00159682
4 *144:8 0.00172665
5 *144:10 *176:5 0.000318786
6 *144:10 *249:10 0
7 *307:din[24] *307:wmask[3] 0.000101888
8 *307:din[24] *144:10 2.18679e-05
9 *27:8 *144:10 0.000891551
10 *91:9 *307:wmask[3] 1.90525e-05
11 *91:11 *144:10 0.00414328
*RES
1 *3551:X *144:8 16.1364 
2 *144:8 *144:10 73.6706 
3 *144:10 *307:wmask[3] 6.47728 
*END

*D_NET *8 0.00573794
*CONN
*I *307:addr[7] I *D sram22_256x64m4w8
*I *3480:X O *D sky130_fd_sc_hd__clkdlybuf4s50_1
*CAP
1 *307:addr[7] 5.67362e-05
2 *3480:X 0
3 *8:8 0.00286897
4 *8:6 0.00281223
5 *8:8 *157:9 0
*RES
1 *3480:X *8:6 13.7491 
2 *8:6 *8:8 70.7639 
3 *8:8 *307:addr[7] 5.85034 
*END

*D_NET *145 0.00777973
*CONN
*I *307:wmask[4] I *D sram22_256x64m4w8
*I *3552:X O *D sky130_fd_sc_hd__clkdlybuf4s50_1
*CAP
1 *307:wmask[4] 0.000875562
2 *3552:X 0.000251617
3 *145:10 0.0028478
4 *145:8 0.00222386
5 *307:din[32] *307:wmask[4] 0.000314177
6 *36:10 *307:wmask[4] 4.69495e-06
7 *36:10 *145:10 0
8 *100:25 *307:wmask[4] 0.00111524
9 *101:15 *307:wmask[4] 0.000146784
10 *101:15 *145:10 0
*RES
1 *3552:X *145:8 17.2456 
2 *145:8 *145:10 49.3784 
3 *145:10 *307:wmask[4] 20.5467 
*END

*D_NET *146 0.00825075
*CONN
*I *307:wmask[5] I *D sram22_256x64m4w8
*I *3553:X O *D sky130_fd_sc_hd__clkdlybuf4s50_1
*CAP
1 *307:wmask[5] 0.000880585
2 *3553:X 0
3 *146:8 0.00226813
4 *146:6 0.00138754
5 *307:din[40] *307:wmask[5] 0.000248048
6 *307:din[40] *146:8 0.000438035
7 *3588:A *307:wmask[5] 0
8 *45:12 *146:8 0.00192086
9 *109:25 *307:wmask[5] 0.00110755
*RES
1 *3553:X *146:6 13.7491 
2 *146:6 *146:8 49.3784 
3 *146:8 *307:wmask[5] 17.6909 
*END

*D_NET *147 0.0103839
*CONN
*I *307:wmask[6] I *D sram22_256x64m4w8
*I *3554:X O *D sky130_fd_sc_hd__clkdlybuf4s50_1
*CAP
1 *307:wmask[6] 0.000146153
2 *3554:X 9.18022e-05
3 *147:10 0.00162646
4 *147:8 0.00157211
5 *147:10 *202:13 0
6 *147:10 *275:8 0
7 *147:10 *276:8 0
8 *307:din[48] *307:wmask[6] 0.000101974
9 *53:10 *307:wmask[6] 5.03545e-06
10 *53:10 *147:10 0.00408386
11 *117:25 *147:10 0.000503333
12 *117:29 *147:10 0.00225315
*RES
1 *3554:X *147:8 15.0271 
2 *147:8 *147:10 73.121 
3 *147:10 *307:wmask[6] 9.35334 
*END

*D_NET *148 0.00797131
*CONN
*I *307:wmask[7] I *D sram22_256x64m4w8
*I *3555:X O *D sky130_fd_sc_hd__clkdlybuf4s50_1
*CAP
1 *307:wmask[7] 0.000911376
2 *3555:X 0
3 *148:8 0.00242379
4 *148:6 0.00151241
5 *307:din[56] *307:wmask[7] 8.19569e-05
6 *3606:A *307:wmask[7] 0
7 *3607:A *307:wmask[7] 0.00111627
8 *3607:A *148:8 0.000421556
9 *3608:A *148:8 0
10 *62:10 *307:wmask[7] 0.000174416
11 *62:10 *148:8 0.00132952
*RES
1 *3555:X *148:6 13.7491 
2 *148:6 *148:8 49.3784 
3 *148:8 *307:wmask[7] 16.9318 
*END

*D_NET *75 0.00954649
*CONN
*I *3556:A I *D sky130_fd_sc_hd__clkdlybuf4s50_1
*I *307:dout[0] O *D sram22_256x64m4w8
*CAP
1 *3556:A 0.00272201
2 *307:dout[0] 0.00272201
3 *3556:A *307:wmask[0] 0.000128478
4 *3556:A *86:29 0
5 *307:din[0] *3556:A 0.003974
*RES
1 *307:dout[0] *3556:A 47.7699 
*END

*D_NET *76 0.00837465
*CONN
*I *3557:A I *D sky130_fd_sc_hd__clkdlybuf4s50_1
*I *307:dout[10] O *D sram22_256x64m4w8
*CAP
1 *3557:A 0
2 *307:dout[10] 0.00381738
3 *76:31 0.00381738
4 *76:31 *3558:A 0
5 *76:31 *235:8 2.41274e-06
6 *307:din[10] *76:31 6.40358e-05
7 *12:10 *76:31 0.000673446
*RES
1 *307:dout[10] *76:31 41.3822 
2 *76:31 *3557:A 9.24915 
*END

*D_NET *77 0.00769621
*CONN
*I *3558:A I *D sky130_fd_sc_hd__clkdlybuf4s50_1
*I *307:dout[11] O *D sram22_256x64m4w8
*CAP
1 *3558:A 0.00319955
2 *307:dout[11] 0.00319955
3 *307:din[11] *3558:A 6.19844e-05
4 *13:10 *3558:A 0.00123513
5 *14:10 *3558:A 0
6 *76:31 *3558:A 0
*RES
1 *307:dout[11] *3558:A 47.6893 
*END

*D_NET *78 0.00845911
*CONN
*I *3559:A I *D sky130_fd_sc_hd__clkdlybuf4s50_1
*I *307:dout[12] O *D sram22_256x64m4w8
*CAP
1 *3559:A 0.00018144
2 *307:dout[12] 0.00220784
3 *78:29 0.00199011
4 *78:25 0.00401651
5 *78:25 *3560:A 0
6 *78:29 *3560:A 0
7 *307:din[12] *78:25 6.32197e-05
8 *14:10 *78:29 0
9 *15:8 *78:29 0
*RES
1 *307:dout[12] *78:25 18.3354 
2 *78:25 *78:29 49.7258 
3 *78:29 *3559:A 13.3002 
*END

*D_NET *79 0.00736468
*CONN
*I *3560:A I *D sky130_fd_sc_hd__clkdlybuf4s50_1
*I *307:dout[13] O *D sram22_256x64m4w8
*CAP
1 *3560:A 0.00352436
2 *307:dout[13] 0.00352436
3 *3560:A *80:25 0
4 *307:din[13] *3560:A 6.19844e-05
5 *15:8 *3560:A 0.000253962
6 *78:25 *3560:A 0
7 *78:29 *3560:A 0
*RES
1 *307:dout[13] *3560:A 48.5856 
*END

*D_NET *80 0.00910609
*CONN
*I *3561:A I *D sky130_fd_sc_hd__clkdlybuf4s50_1
*I *307:dout[14] O *D sram22_256x64m4w8
*CAP
1 *3561:A 0
2 *307:dout[14] 0.00166821
3 *80:27 0.00137246
4 *80:25 0.00304067
5 *80:27 *81:11 0
6 *80:27 *165:9 0.000109638
7 *307:din[14] *80:25 8.07129e-05
8 *3560:A *80:25 0
9 *16:10 *80:25 0.000250928
10 *16:10 *80:27 0.00258348
*RES
1 *307:dout[14] *80:25 18.1226 
2 *80:25 *80:27 48.9631 
3 *80:27 *3561:A 13.7491 
*END

*D_NET *9 0.00718694
*CONN
*I *307:ce I *D sram22_256x64m4w8
*I *3481:X O *D sky130_fd_sc_hd__clkdlybuf4s50_1
*CAP
1 *307:ce 0.000163413
2 *3481:X 0.000397406
3 *9:22 0.00318757
4 *9:8 0.00342156
5 *9:8 *3481:A 1.69927e-05
6 *1:8 *9:22 0
*RES
1 *3481:X *9:8 19.464 
2 *9:8 *9:22 48.9655 
3 *9:22 *307:ce 11.8938 
*END

*D_NET *81 0.00611905
*CONN
*I *3562:A I *D sky130_fd_sc_hd__clkdlybuf4s50_1
*I *307:dout[15] O *D sram22_256x64m4w8
*CAP
1 *3562:A 0
2 *307:dout[15] 0.000156569
3 *81:11 0.00286334
4 *81:9 0.00301991
5 *307:din[14] *81:11 0
6 *307:din[15] *81:9 7.92243e-05
7 *16:10 *81:11 0
8 *17:10 *81:11 0
9 *80:27 *81:11 0
*RES
1 *307:dout[15] *81:9 8.70775 
2 *81:9 *81:11 71.1791 
3 *81:11 *3562:A 13.7491 
*END

*D_NET *82 0.00627457
*CONN
*I *3563:A I *D sky130_fd_sc_hd__clkdlybuf4s50_1
*I *307:dout[16] O *D sram22_256x64m4w8
*CAP
1 *3563:A 0
2 *307:dout[16] 0.000232778
3 *82:19 0.00277695
4 *82:17 0.00300973
5 *82:17 *307:wmask[2] 9.0458e-06
6 *82:19 *143:22 0
7 *82:19 *228:9 8.24933e-05
8 *307:din[16] *82:17 0.000163573
9 *17:10 *82:19 0
10 *18:10 *82:19 0
*RES
1 *307:dout[16] *82:17 12.3006 
2 *82:17 *82:19 70.7639 
3 *82:19 *3563:A 13.7491 
*END

*D_NET *83 0.00946557
*CONN
*I *3564:A I *D sky130_fd_sc_hd__clkdlybuf4s50_1
*I *307:dout[17] O *D sram22_256x64m4w8
*CAP
1 *3564:A 0
2 *307:dout[17] 0.00136942
3 *83:29 0.00118008
4 *83:25 0.0025495
5 *307:din[17] *83:25 0.00177049
6 *307:din[18] *83:25 0
7 *18:10 *83:29 0
8 *19:10 *83:29 0.00259608
*RES
1 *307:dout[17] *83:25 19.6418 
2 *83:25 *83:29 48.8953 
3 *83:29 *3564:A 9.24915 
*END

*D_NET *84 0.00786992
*CONN
*I *3565:A I *D sky130_fd_sc_hd__clkdlybuf4s50_1
*I *307:dout[18] O *D sram22_256x64m4w8
*CAP
1 *3565:A 0
2 *307:dout[18] 0.00104444
3 *84:29 0.00180718
4 *84:25 0.00285162
5 *307:din[17] *84:25 0
6 *307:din[18] *84:25 0.00181565
7 *307:din[18] *84:29 0.000351031
*RES
1 *307:dout[18] *84:25 17.874 
2 *84:25 *84:29 49.7258 
3 *84:29 *3565:A 9.24915 
*END

*D_NET *85 0.00750048
*CONN
*I *3566:A I *D sky130_fd_sc_hd__clkdlybuf4s50_1
*I *307:dout[19] O *D sram22_256x64m4w8
*CAP
1 *3566:A 0.000144541
2 *307:dout[19] 0.00143143
3 *85:29 0.00154017
4 *85:25 0.00282706
5 *85:25 *87:25 0
6 *85:29 *87:29 0
7 *307:din[19] *85:25 6.19844e-05
8 *21:10 *85:25 0.000282521
9 *21:10 *85:29 0.00121277
*RES
1 *307:dout[19] *85:25 17.8008 
2 *85:25 *85:29 49.7258 
3 *85:29 *3566:A 12.191 
*END

*D_NET *86 0.00785462
*CONN
*I *3567:A I *D sky130_fd_sc_hd__clkdlybuf4s50_1
*I *307:dout[1] O *D sram22_256x64m4w8
*CAP
1 *3567:A 0.000112165
2 *307:dout[1] 0.00188288
3 *86:29 0.00192872
4 *86:25 0.00369943
5 *86:25 *307:wmask[0] 0.00012334
6 *307:din[0] *86:29 0
7 *307:din[1] *86:25 0.000108077
8 *3556:A *86:29 0
9 *22:8 *86:29 0
*RES
1 *307:dout[1] *86:25 18.2261 
2 *86:25 *86:29 49.7258 
3 *86:29 *3567:A 11.6364 
*END

*D_NET *87 0.0065758
*CONN
*I *3568:A I *D sky130_fd_sc_hd__clkdlybuf4s50_1
*I *307:dout[20] O *D sram22_256x64m4w8
*CAP
1 *3568:A 0
2 *307:dout[20] 0.00143938
3 *87:29 0.00169031
4 *87:25 0.00312969
5 *307:din[20] *87:25 6.54941e-05
6 *23:10 *87:25 0.000250928
7 *23:10 *87:29 0
8 *85:25 *87:25 0
9 *85:29 *87:29 0
*RES
1 *307:dout[20] *87:25 18.4402 
2 *87:25 *87:29 46.8191 
3 *87:29 *3568:A 9.24915 
*END

*D_NET *88 0.00911139
*CONN
*I *3569:A I *D sky130_fd_sc_hd__clkdlybuf4s50_1
*I *307:dout[21] O *D sram22_256x64m4w8
*CAP
1 *3569:A 0.000161395
2 *307:dout[21] 0.00220633
3 *88:29 0.00155703
4 *88:25 0.00360197
5 *88:25 *3570:A 0
6 *88:29 *3570:A 0
7 *307:din[21] *88:25 0.000114934
8 *24:8 *88:25 0.000256968
9 *24:8 *88:29 0.00121277
10 *25:10 *88:29 0
*RES
1 *307:dout[21] *88:25 18.0408 
2 *88:25 *88:29 49.7258 
3 *88:29 *3569:A 12.7456 
*END

*D_NET *89 0.00740019
*CONN
*I *3570:A I *D sky130_fd_sc_hd__clkdlybuf4s50_1
*I *307:dout[22] O *D sram22_256x64m4w8
*CAP
1 *3570:A 0.00324912
2 *307:dout[22] 0.00324912
3 *3570:A *3571:A 0.000270379
4 *307:din[22] *3570:A 6.19844e-05
5 *25:10 *3570:A 0.000569586
6 *88:25 *3570:A 0
7 *88:29 *3570:A 0
*RES
1 *307:dout[22] *3570:A 48.5543 
*END

*D_NET *90 0.00828221
*CONN
*I *3571:A I *D sky130_fd_sc_hd__clkdlybuf4s50_1
*I *307:dout[23] O *D sram22_256x64m4w8
*CAP
1 *3571:A 0.00395617
2 *307:dout[23] 0.00395617
3 *307:din[23] *3571:A 6.40358e-05
4 *3570:A *3571:A 0.000270379
5 *26:10 *3571:A 3.54559e-05
*RES
1 *307:dout[23] *3571:A 38.3828 
*END

*D_NET *224 0.00200977
*CONN
*P rstb I
*I *3624:A I *D sky130_fd_sc_hd__dlygate4sd3_1
*CAP
1 rstb 0.000884195
2 *3624:A 0.000884195
3 *3624:A *225:5 0
4 *307:clk *3624:A 0.000241377
*RES
1 rstb *3624:A 37.2964 
*END

*D_NET *225 0.00861562
*CONN
*P we I
*I *3547:A I *D sky130_fd_sc_hd__clkdlybuf4s50_1
*CAP
1 we 0.00231516
2 *3547:A 0
3 *225:9 0.00188527
4 *225:7 0.00199265
5 *225:5 0.00242254
6 *225:5 *302:12 0
7 *307:clk *225:5 0
8 *3624:A *225:5 0
9 *159:9 *225:9 0
*RES
1 we *225:5 59.491 
2 *225:5 *225:7 2.98005 
3 *225:7 *225:9 47.6929 
4 *225:9 *3547:A 13.7491 
*END

*D_NET *226 0.00937285
*CONN
*P wmask[0] I
*I *3548:A I *D sky130_fd_sc_hd__clkdlybuf4s50_1
*CAP
1 wmask[0] 0.0017662
2 *3548:A 0
3 *226:11 0.00100973
4 *226:5 0.00277594
5 *226:5 data_out[0] 0
6 *226:11 *234:10 0
7 *160:11 *226:5 5.50136e-06
8 *160:13 *226:5 0.00162917
9 *160:13 *226:11 0.00218631
*RES
1 wmask[0] *226:5 59.491 
2 *226:5 *226:11 42.5444 
3 *226:11 *3548:A 9.24915 
*END

*D_NET *227 0.010541
*CONN
*P wmask[1] I
*I *3549:A I *D sky130_fd_sc_hd__clkdlybuf4s50_1
*CAP
1 wmask[1] 4.56404e-05
2 *3549:A 0
3 *227:9 0.00341213
4 *227:7 0.00345777
5 *227:7 data_out[7] 0
6 *227:9 data_out[7] 0
7 *73:12 *227:9 0
8 *137:11 *227:9 0.000168928
9 *222:5 *227:7 2.79993e-05
10 *222:5 *227:9 0.0010042
11 *222:11 *227:9 0.00242433
*RES
1 wmask[1] *227:7 1.6488 
2 *227:7 *227:9 109.175 
3 *227:9 *3549:A 13.7491 
*END

*D_NET *228 0.00936134
*CONN
*P wmask[2] I
*I *3550:A I *D sky130_fd_sc_hd__clkdlybuf4s50_1
*CAP
1 wmask[2] 0.00175755
2 *3550:A 0
3 *228:9 0.00163961
4 *228:7 0.00166602
5 *228:5 0.00178396
6 *228:5 data_out[15] 0
7 *228:9 data_out[16] 0
8 *228:9 *240:10 0
9 *17:10 *228:9 0
10 *18:10 *228:9 0
11 *82:19 *228:9 8.24933e-05
12 *167:5 *228:5 0.00164141
13 *167:5 *228:9 0.000790296
*RES
1 wmask[2] *228:5 59.491 
2 *228:5 *228:7 0.732798 
3 *228:7 *228:9 50.5997 
4 *228:9 *3550:A 13.7491 
*END

*D_NET *229 0.00910909
*CONN
*P wmask[3] I
*I *3551:A I *D sky130_fd_sc_hd__clkdlybuf4s50_1
*CAP
1 wmask[3] 0.00175783
2 *3551:A 0
3 *229:11 0.00138194
4 *229:5 0.00313977
5 *229:5 data_out[23] 0
6 *229:5 *249:12 0
7 *229:11 *249:10 0.00118814
8 *176:5 *229:5 0.00164141
9 *176:5 *229:11 0
*RES
1 wmask[3] *229:5 59.491 
2 *229:5 *229:11 49.7503 
3 *229:11 *3551:A 9.24915 
*END

*D_NET *230 0.0107485
*CONN
*P wmask[4] I
*I *3552:A I *D sky130_fd_sc_hd__clkdlybuf4s50_1
*CAP
1 wmask[4] 8.97749e-05
2 *3552:A 0
3 *230:13 0.0031596
4 *230:11 0.00324937
5 *230:11 data_out[31] 0
6 *230:13 data_out[31] 0
7 *230:13 *258:10 0
8 *230:13 *259:10 0
9 *35:10 *230:13 0
10 *36:10 *230:13 0
11 *100:29 *230:13 5.49703e-05
12 *185:7 *230:11 5.50136e-06
13 *185:7 *230:13 0
14 *185:9 *230:13 0.0016136
15 *185:15 *230:13 0.00257569
*RES
1 wmask[4] *230:11 11.1257 
2 *230:11 *230:13 109.798 
3 *230:13 *3552:A 13.7491 
*END

*D_NET *231 0.00956057
*CONN
*P wmask[5] I
*I *3553:A I *D sky130_fd_sc_hd__clkdlybuf4s50_1
*CAP
1 wmask[5] 0.00175755
2 *3553:A 5.60937e-05
3 *231:9 0.00169394
4 *231:7 0.00166425
5 *231:5 0.00178396
6 *231:5 data_out[39] 0
7 *231:9 *266:10 0
8 *231:9 *268:10 0
9 *43:12 *231:9 0
10 *45:12 *231:9 0
11 *109:29 *231:9 0.0001763
12 *194:5 *231:5 0.00164141
13 *194:5 *231:9 0.000787052
*RES
1 wmask[5] *231:5 59.491 
2 *231:5 *231:7 0.732798 
3 *231:7 *231:9 50.5997 
4 *231:9 *3553:A 15.0271 
*END

*D_NET *232 0.00828504
*CONN
*P wmask[6] I
*I *3554:A I *D sky130_fd_sc_hd__clkdlybuf4s50_1
*CAP
1 wmask[6] 0.00405844
2 *3554:A 8.13318e-05
3 *232:5 0.00413977
4 *232:5 data_out[47] 0
5 *232:5 data_out[48] 0
6 *232:5 *276:8 0
7 *202:11 *232:5 5.50136e-06
8 *202:13 *232:5 0
*RES
1 wmask[6] *232:5 103.276 
2 *232:5 *3554:A 15.5817 
*END

*D_NET *233 0.0101614
*CONN
*P wmask[7] I
*I *3555:A I *D sky130_fd_sc_hd__clkdlybuf4s50_1
*CAP
1 wmask[7] 6.54004e-05
2 *3555:A 0
3 *233:9 0.00371347
4 *233:7 0.00377887
5 *233:7 data_out[55] 0
6 *233:9 data_out[55] 0
7 *233:9 *284:10 0
8 *61:12 *233:9 0
9 *62:10 *233:9 0
10 *211:5 *233:7 2.79993e-05
11 *211:5 *233:9 0
12 *211:9 *233:9 0.00257569
*RES
1 wmask[7] *233:7 2.21061 
2 *233:7 *233:9 109.175 
3 *233:9 *3555:A 13.7491 
*END
